122
Latest structure exported from QE output in Cartesian Angstrom
NI      1.2254504230     0.7101865830     1.4556095020
NI      2.4444040200     2.8214761450     1.4556095020
NI      3.6633576180     4.9327657080     1.4556095020
NI      4.8823112150     7.0440552710     1.4556095020
NI      6.1012648120     9.1553448320     1.4556095020
NI      7.3202184090    11.2666343950     1.4556095020
NI      3.6633576170     0.7101865830     1.4556095020
NI      4.8823112140     2.8214761450     1.4556095020
NI      6.1012648110     4.9327657080     1.4556095020
NI      7.3202184090     7.0440552710     1.4556095020
NI      8.5391720050     9.1553448320     1.4556095020
NI      9.7581256030    11.2666343950     1.4556095020
NI      6.1012648120     0.7101865830     1.4556095020
NI      7.3202184090     2.8214761450     1.4556095020
NI      8.5391720060     4.9327657080     1.4556095020
NI      9.7581256040     7.0440552710     1.4556095020
NI     10.9770792000     9.1553448320     1.4556095020
NI     12.1960327980    11.2666343950     1.4556095020
NI      8.5391720070     0.7101865830     1.4556095020
NI      9.7581256040     2.8214761450     1.4556095020
NI     10.9770792010     4.9327657080     1.4556095020
NI     12.1960327990     7.0440552710     1.4556095020
NI     13.4149863960     9.1553448320     1.4556095020
NI     14.6339399930    11.2666343950     1.4556095020
NI     10.9770792000     0.7101865830     1.4556095020
NI     12.1960327970     2.8214761450     1.4556095020
NI     13.4149863950     4.9327657080     1.4556095020
NI     14.6339399920     7.0440552710     1.4556095020
NI     15.8528935890     9.1553448320     1.4556095020
NI     17.0718471870    11.2666343950     1.4556095020
NI     13.4149863960     0.7101865830     1.4556095020
NI     14.6339399920     2.8214761450     1.4556095020
NI     15.8528935900     4.9327657080     1.4556095020
NI     17.0718471870     7.0440552710     1.4556095020
NI     18.2908007840     9.1553448320     1.4556095020
NI     19.5097543820    11.2666343950     1.4556095020
NI     13.4527765396     7.7636085094     3.4059011593
NI     14.6468828684     9.8311028107     3.3944244110
NI     15.8392741751     7.7662077110     3.3939348364
NI     12.2439660108     9.8357610693     3.4394277301
NI     14.6437148569     5.6889261076     3.4212628299
NI     17.0341676046     9.8323334301     3.4120580714
NI     11.0259007858     7.7537914535     3.4560764259
NI     13.4428582951    11.9235046066     3.4362887216
NI     12.2338364336     5.6736883703     3.4376621206
NI     15.8433617169    11.9185211727     3.4286809199
NI     17.0463614218     5.6818969081     3.4325290204
NI     18.2414502246     7.7587471986     3.4247696057
NI      9.7908926140     9.8441665376     3.4807166431
NI     11.0134614176    11.9452458114     3.4640779126
NI     13.4253102980     3.5688811958     3.4612761523
NI     18.2550694194    11.9335758325     3.4518321123
NI     15.8506833632     3.5734215121     3.4544761060
NI     19.4637826802     9.8388389395     3.4592849749
NI      4.8469225268     5.6612359233     3.4502759106
NI      7.3269962741     1.3734404176     3.4577302959
NI      9.7882917383     5.6531904379     3.4690610638
NI      3.6535543184     3.5543938448     3.4714677022
NI      6.0673095333     7.7477331395     3.4769066354
NI      4.9014576641     1.3931728836     3.4763891902
NI      8.5541821531     7.7461130532     3.4811743228
NI      9.7461573704     1.3828128127     3.4683922812
NI     10.9899847228     3.5423494239     3.4747763310
NI      2.4577116030     1.4218070230     3.4897225291
NI      7.3102134714     9.8458790782     3.4885452441
NI     12.1818614808     1.4114523515     3.4819631802
NI      6.0952308849     3.5245237786     3.4814596084
NI      7.3119515113     5.6451140677     3.4839321969
NI      8.5437250741     3.5173837978     3.4900472385
NI      8.5498126697    11.9593234721     3.4928881976
NI     14.6315179572     1.4309704319     3.4934689793
NI     20.7022644232    11.9548080982     3.4807671989
AG     -0.1012200544    -0.0175733308     5.7857995539
AG      5.7809294884     5.0376286083     5.7728213885
AG      7.2037278593     2.5399713124     5.7741711859
AG      8.6567204599     5.0574464512     5.7690124694
AG      1.3523273749     2.4726156305     5.7805857753
AG      5.7991762013    10.1592168117     5.8187363540
AG      2.7777609199    -0.0156840873     5.7963911201
AG      8.6434378666    10.1519244642     5.8452924923
AG     11.6290697938     0.0201872016     5.8050626848
AG     13.0692216599     2.4897360001     5.7872525598
AG      4.2741457357     2.4975434044     5.7944088271
AG      7.2327224067     7.6148175949     5.8156181052
AG     10.1313738940     2.5393910468     5.7839830213
AG      2.8565160510     4.9917623200     5.8207078227
AG      4.3541070729     7.5745027051     5.8210219829
AG      5.7106956323     0.0188534487     5.8159209423
AG     10.0685629624     7.6113597738     5.8273819017
AG      8.6814887068     0.0425568918     5.8176779718
AG     11.5477784045     5.0371855054     5.7993415980
AG     11.5093932534    10.1634357175     5.8361339480
AG     14.5155399029     4.9862256113     5.8257950747
AG     17.5135602054    10.1478790745     5.8410890143
AG     12.9926216098     7.5794801329     5.8451425481
AG     14.5033417451    10.1404259777     5.8525218809
AG     16.0069675710     7.5504660024     5.8592601656
AG      5.7455139899     3.3578436564     8.0909025612
AG      7.1964656203     5.8885119611     8.0937481056
AG      8.6661650294     3.3620851131     8.0826828019
AG      4.2923285157     5.8870191497     8.1061010442
AG      7.2064242974     0.8325000750     8.1078675480
AG     10.1259911779     5.8930222143     8.0996859203
AG      1.3511484711     0.8440814423     8.1069055438
AG      7.1542606004    11.0214228592     8.1686572862
AG     13.0531394857     0.8614581426     8.1254934498
AG      2.8216545807     3.3455639566     8.1147596290
AG      5.7402599717     8.4447570056     8.1198513869
AG      4.2834141896     0.8378474307     8.1199710799
AG      8.6606078510     8.4071537408     8.1691913199
AG     10.1382555002     0.8482684713     8.1139044560
AG     11.6043819815     3.3648102632     8.0870437702
AG     11.5956817383     8.4352625206     8.1268462435
AG     13.0662034799    10.9656279397     8.1252935863
AG     13.0667592762     5.8844463669     8.1069455680
AG     15.9923306358    10.9705221474     8.1093186011
AG     15.9964315952     5.8697809034     8.1254933074
AG     17.4580575945     8.4275702866     8.1208520363
AG     10.1580343974    11.0035248525     8.1763383781
AG     14.5261148682     3.3530186301     8.1242198287
AG     18.8997963605    10.9900905078     8.1370273097
AG     14.5254980385     8.4161002532     8.1244328032
