122
Step 1 | ATOMIC_POSITIONS (angstrom) | Cartesian Angstrom
NI      1.2254504230     0.7101865830     1.4556095020
NI      2.4444040200     2.8214761450     1.4556095020
NI      3.6633576180     4.9327657080     1.4556095020
NI      4.8823112150     7.0440552710     1.4556095020
NI      6.1012648120     9.1553448320     1.4556095020
NI      7.3202184090    11.2666343950     1.4556095020
NI      3.6633576170     0.7101865830     1.4556095020
NI      4.8823112140     2.8214761450     1.4556095020
NI      6.1012648110     4.9327657080     1.4556095020
NI      7.3202184090     7.0440552710     1.4556095020
NI      8.5391720050     9.1553448320     1.4556095020
NI      9.7581256030    11.2666343950     1.4556095020
NI      6.1012648120     0.7101865830     1.4556095020
NI      7.3202184090     2.8214761450     1.4556095020
NI      8.5391720060     4.9327657080     1.4556095020
NI      9.7581256040     7.0440552710     1.4556095020
NI     10.9770792000     9.1553448320     1.4556095020
NI     12.1960327980    11.2666343950     1.4556095020
NI      8.5391720070     0.7101865830     1.4556095020
NI      9.7581256040     2.8214761450     1.4556095020
NI     10.9770792010     4.9327657080     1.4556095020
NI     12.1960327990     7.0440552710     1.4556095020
NI     13.4149863960     9.1553448320     1.4556095020
NI     14.6339399930    11.2666343950     1.4556095020
NI     10.9770792000     0.7101865830     1.4556095020
NI     12.1960327970     2.8214761450     1.4556095020
NI     13.4149863950     4.9327657080     1.4556095020
NI     14.6339399920     7.0440552710     1.4556095020
NI     15.8528935890     9.1553448320     1.4556095020
NI     17.0718471870    11.2666343950     1.4556095020
NI     13.4149863960     0.7101865830     1.4556095020
NI     14.6339399920     2.8214761450     1.4556095020
NI     15.8528935900     4.9327657080     1.4556095020
NI     17.0718471870     7.0440552710     1.4556095020
NI     18.2908007840     9.1553448320     1.4556095020
NI     19.5097543820    11.2666343950     1.4556095020
NI     13.4527991530     7.7634948752     3.4070477431
NI     14.6466970578     9.8311331392     3.3943993290
NI     15.8399337337     7.7656435351     3.3939021025
NI     12.2437227004     9.8364999519     3.4410455699
NI     14.6437067082     5.6885994688     3.4215375137
NI     17.0343671980     9.8320851285     3.4122425402
NI     11.0255521529     7.7542360729     3.4571998867
NI     13.4418869186    11.9226897946     3.4368150280
NI     12.2339557631     5.6736437274     3.4383468307
NI     15.8434928479    11.9185365117     3.4290097947
NI     17.0464104697     5.6819574668     3.4331402863
NI     18.2411473006     7.7582989020     3.4258245116
NI      9.7911326032     9.8435803546     3.4789281792
NI     11.0138027919    11.9458274693     3.4630095701
NI     13.4249874078     3.5689704424     3.4617827302
NI     18.2558990413    11.9330991648     3.4522911397
NI     15.8510500143     3.5732812287     3.4552543670
NI     19.4639981813     9.8389373028     3.4614222404
NI      4.8469051834     5.6613071718     3.4506803206
NI      7.3272207553     1.3738087866     3.4578984501
NI      9.7884781808     5.6542078471     3.4690502050
NI      3.6533561681     3.5545098283     3.4708957687
NI      6.0680872444     7.7476667262     3.4788600447
NI      4.9007358336     1.3923469381     3.4769719774
NI      8.5540784530     7.7465056371     3.4791432262
NI      9.7467288234     1.3835521525     3.4687211696
NI     10.9901115041     3.5421535579     3.4741386142
NI      2.4588305275     1.4211447974     3.4916549902
NI      7.3101111673     9.8459814409     3.4862530877
NI     12.1825089448     1.4109482041     3.4827527173
NI      6.0952588781     3.5243573878     3.4816180709
NI      7.3124263232     5.6457436008     3.4840041936
NI      8.5439842634     3.5176530555     3.4901896065
NI      8.5499341409    11.9583567815     3.4910600434
NI     14.6311559548     1.4300075771     3.4950215979
NI     20.7017259905    11.9551376559     3.4795080538
AG     -0.1011925525    -0.0219698480     5.7894273886
AG      5.7813329708     5.0379180879     5.7722068286
AG      7.2035928916     2.5391609681     5.7747401809
AG      8.6583724146     5.0581404601     5.7698048874
AG      1.3518945479     2.4722272347     5.7796510764
AG      5.8037763850    10.1613756735     5.8220090397
AG      2.7771310139    -0.0205937687     5.7994817137
AG      8.6428438112    10.1524799969     5.8429462600
AG     11.6284700617     0.0202997953     5.8048148269
AG     13.0698678115     2.4890131180     5.7863727329
AG      4.2738904108     2.4968172209     5.7936540923
AG      7.2368590300     7.6185471850     5.8193054893
AG     10.1312675897     2.5401954172     5.7844127481
AG      2.8566321536     4.9914226318     5.8208463985
AG      4.3543803172     7.5752673823     5.8199383996
AG      5.7101172261     0.0175334706     5.8149345299
AG     10.0645302890     7.6128353420     5.8322406871
AG      8.6807842165     0.0426224361     5.8178182983
AG     11.5454369042     5.0385218609     5.8008453021
AG     11.5042985368    10.1666496626     5.8374675807
AG     14.5166086950     4.9863509910     5.8253777464
AG     17.5146788620    10.1473697854     5.8406832796
AG     12.9912337557     7.5808591110     5.8447457299
AG     14.5033657179    10.1391782903     5.8518554871
AG     16.0068036795     7.5503489811     5.8594718665
AG      5.7465591943     3.3573584634     8.0906362486
AG      7.1953056398     5.8882860885     8.0925643118
AG      8.6653274587     3.3602051058     8.0808362527
AG      4.2931889344     5.8871862954     8.1061785531
AG      7.2067001462     0.8318385061     8.1082550502
AG     10.1243324062     5.8950149212     8.0971913121
AG      1.3513318914     0.8488743122     8.1030147772
AG      7.1361306393    11.0321725377     8.1742374953
AG     13.0527375408     0.8635387726     8.1263374652
AG      2.8223129942     3.3455130223     8.1143812934
AG      5.7366364617     8.4418315185     8.1170872680
AG      4.2843933323     0.8374164339     8.1198426513
AG      8.6609922219     8.3895883482     8.1739471471
AG     10.1386855964     0.8491363607     8.1145499804
AG     11.6059834839     3.3629131174     8.0837694290
AG     11.6004151785     8.4328113123     8.1240636325
AG     13.0671588630    10.9650420357     8.1246905396
AG     13.0691257909     5.8849591815     8.1059319575
AG     15.9926053092    10.9704425387     8.1081964168
AG     15.9965345860     5.8690479028     8.1255179023
AG     17.4580953580     8.4273588166     8.1209585094
AG     10.1739730422    11.0122748847     8.1823577252
AG     14.5252609939     3.3533910369     8.1254091907
AG     18.8988341542    10.9905088152     8.1371680899
AG     14.5250087798     8.4150623653     8.1248530767
122
Step 2 | ATOMIC_POSITIONS (angstrom) | Cartesian Angstrom
NI      1.2254504230     0.7101865830     1.4556095020
NI      2.4444040200     2.8214761450     1.4556095020
NI      3.6633576180     4.9327657080     1.4556095020
NI      4.8823112150     7.0440552710     1.4556095020
NI      6.1012648120     9.1553448320     1.4556095020
NI      7.3202184090    11.2666343950     1.4556095020
NI      3.6633576170     0.7101865830     1.4556095020
NI      4.8823112140     2.8214761450     1.4556095020
NI      6.1012648110     4.9327657080     1.4556095020
NI      7.3202184090     7.0440552710     1.4556095020
NI      8.5391720050     9.1553448320     1.4556095020
NI      9.7581256030    11.2666343950     1.4556095020
NI      6.1012648120     0.7101865830     1.4556095020
NI      7.3202184090     2.8214761450     1.4556095020
NI      8.5391720060     4.9327657080     1.4556095020
NI      9.7581256040     7.0440552710     1.4556095020
NI     10.9770792000     9.1553448320     1.4556095020
NI     12.1960327980    11.2666343950     1.4556095020
NI      8.5391720070     0.7101865830     1.4556095020
NI      9.7581256040     2.8214761450     1.4556095020
NI     10.9770792010     4.9327657080     1.4556095020
NI     12.1960327990     7.0440552710     1.4556095020
NI     13.4149863960     9.1553448320     1.4556095020
NI     14.6339399930    11.2666343950     1.4556095020
NI     10.9770792000     0.7101865830     1.4556095020
NI     12.1960327970     2.8214761450     1.4556095020
NI     13.4149863950     4.9327657080     1.4556095020
NI     14.6339399920     7.0440552710     1.4556095020
NI     15.8528935890     9.1553448320     1.4556095020
NI     17.0718471870    11.2666343950     1.4556095020
NI     13.4149863960     0.7101865830     1.4556095020
NI     14.6339399920     2.8214761450     1.4556095020
NI     15.8528935900     4.9327657080     1.4556095020
NI     17.0718471870     7.0440552710     1.4556095020
NI     18.2908007840     9.1553448320     1.4556095020
NI     19.5097543820    11.2666343950     1.4556095020
NI     13.4528144961     7.7635554571     3.4065305531
NI     14.6467920282     9.8310990185     3.3943643859
NI     15.8396292088     7.7658922674     3.3939013771
NI     12.2438162835     9.8361631001     3.4404301771
NI     14.6437111958     5.6887419022     3.4213884083
NI     17.0342747889     9.8321868317     3.4121363371
NI     11.0256849511     7.7540420322     3.4568613965
NI     13.4423403922    11.9230486010     3.4365613047
NI     12.2338934767     5.6736594352     3.4380949455
NI     15.8434411877    11.9185376112     3.4288564410
NI     17.0463930091     5.6819141601     3.4328711692
NI     18.2412912330     7.7584993588     3.4253310760
NI      9.7910478644     9.8438436116     3.4796579200
NI     11.0136110312    11.9455846676     3.4634977373
NI     13.4251341228     3.5689307626     3.4615608373
NI     18.2555191075    11.9333020173     3.4520809474
NI     15.8508869164     3.5733275921     3.4549071921
NI     19.4639336543     9.8388697574     3.4606137079
NI      4.8469134630     5.6612791580     3.4504969248
NI      7.3271115105     1.3736325542     3.4578209626
NI      9.7884137554     5.6537874481     3.4690831495
NI      3.6534512242     3.5544602377     3.4711241878
NI      6.0677638754     7.7476960326     3.4781249545
NI      4.9010761498     1.3926962245     3.4767242000
NI      8.5541196589     7.7463353749     3.4800400313
NI      9.7465072983     1.3832225797     3.4685866318
NI     10.9900623159     3.5422493166     3.4744183591
NI      2.4583394961     1.4213826592     3.4908958901
NI      7.3101247506     9.8459471609     3.4871908622
NI     12.1822251667     1.4111627328     3.4824219372
NI      6.0952448169     3.5244174058     3.4815593252
NI      7.3122398407     5.6454766535     3.4840092901
NI      8.5438787449     3.5175650875     3.4901491947
NI      8.5498830530    11.9587878074     3.4918366666
NI     14.6313430808     1.4303753459     3.4944236658
NI     20.7019867092    11.9549964879     3.4800776319
AG     -0.1011951478    -0.0201670106     5.7879036268
AG      5.7812047504     5.0378193198     5.7724428513
AG      7.2036267156     2.5394862443     5.7744849834
AG      8.6576653525     5.0578502296     5.7694397950
AG      1.3520660705     2.4723474561     5.7800029378
AG      5.8018946004    10.1604710613     5.8206387929
AG      2.7773522207    -0.0185909142     5.7981895263
AG      8.6430892062    10.1522550276     5.8441352932
AG     11.6287006945     0.0202661781     5.8049313346
AG     13.0696444080     2.4892765133     5.7867104961
AG      4.2739761146     2.4970764756     5.7939576245
AG      7.2351415005     7.6170840487     5.8177565478
AG     10.1313130619     2.5398666456     5.7841977973
AG      2.8566031325     4.9915548680     5.8207976961
AG      4.3543097958     7.5749598700     5.8203621832
AG      5.7103479311     0.0180624017     5.8153479446
AG     10.0662233361     7.6123229266     5.8301593973
AG      8.6810692690     0.0425954321     5.8177651522
AG     11.5463961553     5.0380267972     5.8001981925
AG     11.5063256115    10.1653125745     5.8368907966
AG     14.5161729322     4.9862847243     5.8255531402
AG     17.5142794152    10.1475710438     5.8408474235
AG     12.9917527450     7.5803162961     5.8448652093
AG     14.5033384053    10.1396580780     5.8521367119
AG     16.0068648524     7.5503944765     5.8593899190
AG      5.7461323991     3.3575455989     8.0907311853
AG      7.1957012499     5.8882656933     8.0930381243
AG      8.6656668826     3.3609682035     8.0815761288
AG      4.2928336415     5.8870984946     8.1061331859
AG      7.2065778032     0.8320725065     8.1081029558
AG     10.1250587239     5.8940868830     8.0982412343
AG      1.3512619764     0.8469645924     8.1045834541
AG      7.1434138702    11.0278774532     8.1720984299
AG     13.0528266390     0.8628322214     8.1260150124
AG      2.8220762439     3.3455463754     8.1145225328
AG      5.7380763580     8.4430046300     8.1182095622
AG      4.2840831973     0.8377036472     8.1198907966
AG      8.6608249322     8.3966740070     8.1721573034
AG     10.1385169125     0.8487739898     8.1142917706
AG     11.6053453217     3.3637039929     8.0850638011
AG     11.5985380728     8.4338105444     8.1251943633
AG     13.0669041432    10.9652579674     8.1249209076
AG     13.0681892699     5.8847273555     8.1063166267
AG     15.9924981502    10.9704651838     8.1086251382
AG     15.9965176316     5.8693320804     8.1255136663
AG     17.4580544957     8.4274369454     8.1209123527
AG     10.1675674331    11.0087490128     8.1800363471
AG     14.5256035482     3.3532721554     8.1249295478
AG     18.8990615832    10.9903482975     8.1371208380
AG     14.5252396040     8.4154777766     8.1246879684
122
Step 3 | ATOMIC_POSITIONS (angstrom) | Cartesian Angstrom
NI      1.2254504230     0.7101865830     1.4556095020
NI      2.4444040200     2.8214761450     1.4556095020
NI      3.6633576180     4.9327657080     1.4556095020
NI      4.8823112150     7.0440552710     1.4556095020
NI      6.1012648120     9.1553448320     1.4556095020
NI      7.3202184090    11.2666343950     1.4556095020
NI      3.6633576170     0.7101865830     1.4556095020
NI      4.8823112140     2.8214761450     1.4556095020
NI      6.1012648110     4.9327657080     1.4556095020
NI      7.3202184090     7.0440552710     1.4556095020
NI      8.5391720050     9.1553448320     1.4556095020
NI      9.7581256030    11.2666343950     1.4556095020
NI      6.1012648120     0.7101865830     1.4556095020
NI      7.3202184090     2.8214761450     1.4556095020
NI      8.5391720060     4.9327657080     1.4556095020
NI      9.7581256040     7.0440552710     1.4556095020
NI     10.9770792000     9.1553448320     1.4556095020
NI     12.1960327980    11.2666343950     1.4556095020
NI      8.5391720070     0.7101865830     1.4556095020
NI      9.7581256040     2.8214761450     1.4556095020
NI     10.9770792010     4.9327657080     1.4556095020
NI     12.1960327990     7.0440552710     1.4556095020
NI     13.4149863960     9.1553448320     1.4556095020
NI     14.6339399930    11.2666343950     1.4556095020
NI     10.9770792000     0.7101865830     1.4556095020
NI     12.1960327970     2.8214761450     1.4556095020
NI     13.4149863950     4.9327657080     1.4556095020
NI     14.6339399920     7.0440552710     1.4556095020
NI     15.8528935890     9.1553448320     1.4556095020
NI     17.0718471870    11.2666343950     1.4556095020
NI     13.4149863960     0.7101865830     1.4556095020
NI     14.6339399920     2.8214761450     1.4556095020
NI     15.8528935900     4.9327657080     1.4556095020
NI     17.0718471870     7.0440552710     1.4556095020
NI     18.2908007840     9.1553448320     1.4556095020
NI     19.5097543820    11.2666343950     1.4556095020
NI     13.4527765396     7.7636085094     3.4059011593
NI     14.6468828684     9.8311028107     3.3944244110
NI     15.8392741751     7.7662077110     3.3939348364
NI     12.2439660108     9.8357610693     3.4394277301
NI     14.6437148569     5.6889261076     3.4212628299
NI     17.0341676046     9.8323334301     3.4120580714
NI     11.0259007858     7.7537914535     3.4560764259
NI     13.4428582951    11.9235046066     3.4362887216
NI     12.2338364336     5.6736883703     3.4376621206
NI     15.8433617169    11.9185211727     3.4286809199
NI     17.0463614218     5.6818969081     3.4325290204
NI     18.2414502246     7.7587471986     3.4247696057
NI      9.7908926140     9.8441665376     3.4807166431
NI     11.0134614176    11.9452458114     3.4640779126
NI     13.4253102980     3.5688811958     3.4612761523
NI     18.2550694194    11.9335758325     3.4518321123
NI     15.8506833632     3.5734215121     3.4544761060
NI     19.4637826802     9.8388389395     3.4592849749
NI      4.8469225268     5.6612359233     3.4502759106
NI      7.3269962741     1.3734404176     3.4577302959
NI      9.7882917383     5.6531904379     3.4690610638
NI      3.6535543184     3.5543938448     3.4714677022
NI      6.0673095333     7.7477331395     3.4769066354
NI      4.9014576641     1.3931728836     3.4763891902
NI      8.5541821531     7.7461130532     3.4811743228
NI      9.7461573704     1.3828128127     3.4683922812
NI     10.9899847228     3.5423494239     3.4747763310
NI      2.4577116030     1.4218070230     3.4897225291
NI      7.3102134714     9.8458790782     3.4885452441
NI     12.1818614808     1.4114523515     3.4819631802
NI      6.0952308849     3.5245237786     3.4814596084
NI      7.3119515113     5.6451140677     3.4839321969
NI      8.5437250741     3.5173837978     3.4900472385
NI      8.5498126697    11.9593234721     3.4928881976
NI     14.6315179572     1.4309704319     3.4934689793
NI     20.7022644232    11.9548080982     3.4807671989
AG     -0.1012200544    -0.0175733308     5.7857995539
AG      5.7809294884     5.0376286083     5.7728213885
AG      7.2037278593     2.5399713124     5.7741711859
AG      8.6567204599     5.0574464512     5.7690124694
AG      1.3523273749     2.4726156305     5.7805857753
AG      5.7991762013    10.1592168117     5.8187363540
AG      2.7777609199    -0.0156840873     5.7963911201
AG      8.6434378666    10.1519244642     5.8452924923
AG     11.6290697938     0.0201872016     5.8050626848
AG     13.0692216599     2.4897360001     5.7872525598
AG      4.2741457357     2.4975434044     5.7944088271
AG      7.2327224067     7.6148175949     5.8156181052
AG     10.1313738940     2.5393910468     5.7839830213
AG      2.8565160510     4.9917623200     5.8207078227
AG      4.3541070729     7.5745027051     5.8210219829
AG      5.7106956323     0.0188534487     5.8159209423
AG     10.0685629624     7.6113597738     5.8273819017
AG      8.6814887068     0.0425568918     5.8176779718
AG     11.5477784045     5.0371855054     5.7993415980
AG     11.5093932534    10.1634357175     5.8361339480
AG     14.5155399029     4.9862256113     5.8257950747
AG     17.5135602054    10.1478790745     5.8410890143
AG     12.9926216098     7.5794801329     5.8451425481
AG     14.5033417451    10.1404259777     5.8525218809
AG     16.0069675710     7.5504660024     5.8592601656
AG      5.7455139899     3.3578436564     8.0909025612
AG      7.1964656203     5.8885119611     8.0937481056
AG      8.6661650294     3.3620851131     8.0826828019
AG      4.2923285157     5.8870191497     8.1061010442
AG      7.2064242974     0.8325000750     8.1078675480
AG     10.1259911779     5.8930222143     8.0996859203
AG      1.3511484711     0.8440814423     8.1069055438
AG      7.1542606004    11.0214228592     8.1686572862
AG     13.0531394857     0.8614581426     8.1254934498
AG      2.8216545807     3.3455639566     8.1147596290
AG      5.7402599717     8.4447570056     8.1198513869
AG      4.2834141896     0.8378474307     8.1199710799
AG      8.6606078510     8.4071537408     8.1691913199
AG     10.1382555002     0.8482684713     8.1139044560
AG     11.6043819815     3.3648102632     8.0870437702
AG     11.5956817383     8.4352625206     8.1268462435
AG     13.0662034799    10.9656279397     8.1252935863
AG     13.0667592762     5.8844463669     8.1069455680
AG     15.9923306358    10.9705221474     8.1093186011
AG     15.9964315952     5.8697809034     8.1254933074
AG     17.4580575945     8.4275702866     8.1208520363
AG     10.1580343974    11.0035248525     8.1763383781
AG     14.5261148682     3.3530186301     8.1242198287
AG     18.8997963605    10.9900905078     8.1370273097
AG     14.5254980385     8.4161002532     8.1244328032
122
Step 4 | ATOMIC_POSITIONS (angstrom) | Cartesian Angstrom
NI      1.2254504230     0.7101865830     1.4556095020
NI      2.4444040200     2.8214761450     1.4556095020
NI      3.6633576180     4.9327657080     1.4556095020
NI      4.8823112150     7.0440552710     1.4556095020
NI      6.1012648120     9.1553448320     1.4556095020
NI      7.3202184090    11.2666343950     1.4556095020
NI      3.6633576170     0.7101865830     1.4556095020
NI      4.8823112140     2.8214761450     1.4556095020
NI      6.1012648110     4.9327657080     1.4556095020
NI      7.3202184090     7.0440552710     1.4556095020
NI      8.5391720050     9.1553448320     1.4556095020
NI      9.7581256030    11.2666343950     1.4556095020
NI      6.1012648120     0.7101865830     1.4556095020
NI      7.3202184090     2.8214761450     1.4556095020
NI      8.5391720060     4.9327657080     1.4556095020
NI      9.7581256040     7.0440552710     1.4556095020
NI     10.9770792000     9.1553448320     1.4556095020
NI     12.1960327980    11.2666343950     1.4556095020
NI      8.5391720070     0.7101865830     1.4556095020
NI      9.7581256040     2.8214761450     1.4556095020
NI     10.9770792010     4.9327657080     1.4556095020
NI     12.1960327990     7.0440552710     1.4556095020
NI     13.4149863960     9.1553448320     1.4556095020
NI     14.6339399930    11.2666343950     1.4556095020
NI     10.9770792000     0.7101865830     1.4556095020
NI     12.1960327970     2.8214761450     1.4556095020
NI     13.4149863950     4.9327657080     1.4556095020
NI     14.6339399920     7.0440552710     1.4556095020
NI     15.8528935890     9.1553448320     1.4556095020
NI     17.0718471870    11.2666343950     1.4556095020
NI     13.4149863960     0.7101865830     1.4556095020
NI     14.6339399920     2.8214761450     1.4556095020
NI     15.8528935900     4.9327657080     1.4556095020
NI     17.0718471870     7.0440552710     1.4556095020
NI     18.2908007840     9.1553448320     1.4556095020
NI     19.5097543820    11.2666343950     1.4556095020
NI     13.4526512395     7.7636675665     3.4051662791
NI     14.6469461852     9.8311695079     3.3946316383
NI     15.8388711014     7.7666158959     3.3939871537
NI     12.2441755152     9.8353194884     3.4378384946
NI     14.6437291220     5.6891579415     3.4211861900
NI     17.0340555154     9.8325460931     3.4120000631
NI     11.0262254690     7.7534874636     3.4546021279
NI     13.4434063985    11.9240955730     3.4360353213
NI     12.2337699995     5.6737211261     3.4369859232
NI     15.8432347667    11.9184887078     3.4284438790
NI     17.0463200113     5.6819262773     3.4320650545
NI     18.2416368005     7.7590569538     3.4241528434
NI      9.7907116312     9.8445523547     3.4822686307
NI     11.0134081119    11.9448007806     3.4647900159
NI     13.4255032842     3.5688130720     3.4609265079
NI     18.2545539828    11.9339515878     3.4515495669
NI     15.8504423489     3.5735793627     3.4539483915
NI     19.4635009110     9.8388748067     3.4571403901
NI      4.8469226981     5.6611766416     3.4500273237
NI      7.3268475512     1.3732233153     3.4576181086
NI      9.7880790755     5.6523520684     3.4690219507
NI      3.6536565095     3.5543172498     3.4719757210
NI      6.0666548448     7.7477981520     3.4749626269
NI      4.9018522467     1.3938057542     3.4759661617
NI      8.5542740452     7.7458001064     3.4826786697
NI      9.7456475253     1.3823007760     3.4681104987
NI     10.9898659868     3.5424260941     3.4752578355
NI      2.4569126715     1.4224959341     3.4879451538
NI      7.3103573189     9.8457633310     3.4905265182
NI     12.1814003900     1.4118306094     3.4813615568
NI      6.0951983371     3.5246840726     3.4813070988
NI      7.3115130147     5.6446266185     3.4837874377
NI      8.5435037988     3.5170703179     3.4898738205
NI      8.5497342071    11.9600289305     3.4943367810
NI     14.6316550313     1.4318860480     3.4919881337
NI     20.7025231947    11.9545695438     3.4816275775
AG     -0.1012970900    -0.0138255623     5.7828678712
AG      5.7804115992     5.0372941015     5.7734318716
AG      7.2039517945     2.5407091911     5.7737890799
AG      8.6554684679     5.0568951744     5.7685241948
AG      1.3527227259     2.4731304053     5.7815351487
AG      5.7952287317    10.1574771133     5.8160563822
AG      2.7785120839    -0.0114537324     5.7938504957
AG      8.6439449448    10.1514305887     5.8459010416
AG     11.6296748063     0.0200253013     5.8051922791
AG     13.0684481485     2.4904995543     5.7881262645
AG      4.2744671549     2.4983438474     5.7950811053
AG      7.2293078182     7.6112776500     5.8126349864
AG     10.1314630211     2.5387033106     5.7837984405
AG      2.8563159205     4.9920904133     5.8205459789
AG      4.3536751655     7.5738322224     5.8220601118
AG      5.7112035657     0.0200498460     5.8167178542
AG     10.0718088812     7.6096026561     5.8236410708
AG      8.6821093932     0.0425049837     5.8175245585
AG     11.5497654385     5.0357823917     5.7982038434
AG     11.5140678801    10.1608015284     5.8351187044
AG     14.5146095522     4.9861977925     5.8261387387
AG     17.5123161302    10.1483660026     5.8414697538
AG     12.9940472414     7.5781921299     5.8457181514
AG     14.5033865486    10.1416723018     5.8530783773
AG     16.0071361427     7.5505824649     5.8590572693
AG      5.7446131332     3.3583187856     8.0912043917
AG      7.1978647354     5.8893022498     8.0947863166
AG      8.6668882255     3.3637564286     8.0843451198
AG      4.2916264533     5.8869890881     8.1060985917
AG      7.2062014333     0.8332462466     8.1074961361
AG     10.1271560963     5.8919073132     8.1016481436
AG      1.3509603971     0.8397359524     8.1103342469
AG      7.1703978309    11.0117241035     8.1631235489
AG     13.0538833864     0.8589089808     8.1246146651
AG      2.8209183680     3.3455249733     8.1151486689
AG      5.7435672698     8.4473630579     8.1222296915
AG      4.2821006307     0.8376321233     8.1200715812
AG      8.6603227746     8.4226313575     8.1642893026
AG     10.1378892741     0.8475369873     8.1133145895
AG     11.6029360169     3.3663288301     8.0900881153
AG     11.5913406796     8.4373765279     8.1292357267
AG     13.0646621634    10.9662645790     8.1258670965
AG     13.0645609905     5.8841307200     8.1079639346
AG     15.9920692129    10.9706508315     8.1104444864
AG     15.9962025856     5.8704932291     8.1254315868
AG     17.4581755861     8.4278077789     8.1207678692
AG     10.1438811945    10.9957959404     8.1704293757
AG     14.5268701877     3.3524978810     8.1231543218
AG     18.9014956950    10.9896790754     8.1368156132
AG     14.5257334194     8.4170549729     8.1240261339
