78
Latest structure exported from QE output in Cartesian Angstrom
Ni      1.2286497520     0.7093615510    11.2500000000
Ni      2.4572990100     2.8374462050    11.2500000000
Ni      3.6859482670     4.9655308580    11.2500000000
Ni      4.9145975240     7.0936155120    11.2500000000
Ni      3.6859497520     0.7093615510    11.2500000000
Ni      4.9145990100     2.8374462050    11.2500000000
Ni      6.1432482670     4.9655308580    11.2500000000
Ni      7.3718975240     7.0936155120    11.2500000000
Ni      6.1432497520     0.7093615510    11.2500000000
Ni      7.3718990100     2.8374462050    11.2500000000
Ni      8.6005482670     4.9655308580    11.2500000000
Ni      9.8291975240     7.0936155120    11.2500000000
Ni      8.6005497520     0.7093615510    11.2500000000
Ni      9.8291990100     2.8374462050    11.2500000000
Ni     11.0578482670     4.9655308580    11.2500000000
Ni     12.2864975240     7.0936155120    11.2500000000
Ni      4.9099156437     8.5053429943    13.3011714153
Ni     11.0531329444     2.1206495289    13.3008022987
Ni     12.2817169742     4.2489790338    13.3006009374
Ni     13.5101985337     6.3773433495    13.3009431249
Ni      7.3672568657     8.5047181049    13.3011773704
Ni      3.6813642393     2.1207834059    13.3007249916
Ni      4.9098915811     4.2493198243    13.3009122649
Ni      6.1382079689     6.3774560515    13.3011135672
Ni      9.8241033231     8.5046823230    13.3010832757
Ni      6.1383369811     2.1207818053    13.3007715317
Ni      7.3668809572     4.2490234566    13.3008058444
Ni      8.5953896190     6.3767159329    13.3009510356
Ni     12.2816608155     8.5051500050    13.3006064561
Ni      8.5958456854     2.1206091639    13.3010363913
Ni      9.8244550653     4.2487038258    13.3007275536
Ni     11.0528529681     6.3769409810    13.3006612510
Cu      2.4478273934     1.4024593494    15.3768195279
Cu      3.6763308064     3.5307008763    15.3768060769
Cu      4.9041378635     5.6597275327    15.3773446705
Cu      6.1330260753     7.7878909917    15.3784795762
Cu      4.9046987935     1.4026027494    15.3777978376
Cu      6.1325026874     3.5313494179    15.3777258642
Cu      7.3610720821     5.6598451508    15.3779275454
Cu      8.5906751573     7.7868955285    15.3785352684
Cu      7.3621786350     1.4037478132    15.3762149869
Cu      8.5904727219     3.5321453649    15.3780682333
Cu      9.8190628607     5.6596863340    15.3769316566
Cu     11.0487962789     7.7874997913    15.3777155251
Cu      9.8196454140     1.4041813301    15.3774701118
Cu     11.0479045226     3.5315147301    15.3771972946
Cu     12.2765483612     5.6595853029    15.3771297580
Cu     13.5054403737     7.7883030906    15.3772812510
Cu      1.2177995474     0.6857999782    17.5900959483
Cu      2.4490573130     2.8139235456    17.5788538448
Cu      3.6858251476     4.9447850475    17.5908810493
Cu      4.9041272654     7.0750789990    17.5680237950
Cu      3.6721005357     0.6937080279    17.5738917986
Cu      4.9012350546     2.8163712759    17.5978409614
Cu      6.1184918235     4.9422673686    17.4549395642
Cu      7.3585413219     7.0840524326    17.5287238080
Cu      6.1348168886     0.7000922847    17.5853163207
Cu      7.3539479913     2.8056580047    17.4715563600
Cu      8.6261575845     4.9456618984    17.4964618816
Cu      9.8385405933     7.0998530875    17.5012322405
Cu      8.5893822687     0.6884273775    17.5765899385
Cu      9.8342556233     2.7967988642    17.5025414817
Cu     11.0855108554     4.9483687467    17.4791720223
Cu     12.2847532075     7.0801092837    17.5803787935
O       7.4397977141     3.9815378341    21.7124209404
O       8.4252719739     4.9265314718    19.5261838087
O       8.5950424681     4.9572926675    24.2074177460
C       8.5796698136     4.8686088034    21.8458476457
C       9.4021779008     4.7517128049    20.5695680880
C       9.4229987755     4.6740480084    23.0830545289
H       8.1261779223     5.8744472974    21.8644968492
H       9.8596688035     3.7521687659    20.4464188154
H      10.1823898342     5.5212355902    20.4279327661
H      10.2725222398     5.3836883279    22.9935422674
H       9.8414115909     3.6471226528    23.1019445845
H       7.7247644167     3.0531608884    21.8031084156
H       7.6249843281     4.4303067382    19.8250411015
H       9.0684221770     4.7987401654    25.0345591188
