78
Step 1 | ATOMIC_POSITIONS (angstrom) | Cartesian Angstrom
Ni      1.2286497520     0.7093615510    11.2500000000
Ni      2.4572990100     2.8374462050    11.2500000000
Ni      3.6859482670     4.9655308580    11.2500000000
Ni      4.9145975240     7.0936155120    11.2500000000
Ni      3.6859497520     0.7093615510    11.2500000000
Ni      4.9145990100     2.8374462050    11.2500000000
Ni      6.1432482670     4.9655308580    11.2500000000
Ni      7.3718975240     7.0936155120    11.2500000000
Ni      6.1432497520     0.7093615510    11.2500000000
Ni      7.3718990100     2.8374462050    11.2500000000
Ni      8.6005482670     4.9655308580    11.2500000000
Ni      9.8291975240     7.0936155120    11.2500000000
Ni      8.6005497520     0.7093615510    11.2500000000
Ni      9.8291990100     2.8374462050    11.2500000000
Ni     11.0578482670     4.9655308580    11.2500000000
Ni     12.2864975240     7.0936155120    11.2500000000
Ni      4.9099156437     8.5053429943    13.3011714153
Ni     11.0531329444     2.1206495289    13.3008022987
Ni     12.2817169742     4.2489790338    13.3006009374
Ni     13.5101985337     6.3773433495    13.3009431249
Ni      7.3672568657     8.5047181049    13.3011773704
Ni      3.6813642393     2.1207834059    13.3007249916
Ni      4.9098915811     4.2493198243    13.3009122649
Ni      6.1382079689     6.3774560515    13.3011135672
Ni      9.8241033231     8.5046823230    13.3010832757
Ni      6.1383369811     2.1207818053    13.3007715317
Ni      7.3668809572     4.2490234566    13.3008058444
Ni      8.5953896190     6.3767159329    13.3009510356
Ni     12.2816608155     8.5051500050    13.3006064561
Ni      8.5958456854     2.1206091639    13.3010363913
Ni      9.8244550653     4.2487038258    13.3007275536
Ni     11.0528529681     6.3769409810    13.3006612510
Cu      2.4478273934     1.4024593494    15.3768195279
Cu      3.6763308064     3.5307008763    15.3768060769
Cu      4.9041378635     5.6597275327    15.3773446705
Cu      6.1330260753     7.7878909917    15.3784795762
Cu      4.9046987935     1.4026027494    15.3777978376
Cu      6.1325026874     3.5313494179    15.3777258642
Cu      7.3610720821     5.6598451508    15.3779275454
Cu      8.5906751573     7.7868955285    15.3785352684
Cu      7.3621786350     1.4037478132    15.3762149869
Cu      8.5904727219     3.5321453649    15.3780682333
Cu      9.8190628607     5.6596863340    15.3769316566
Cu     11.0487962789     7.7874997913    15.3777155251
Cu      9.8196454140     1.4041813301    15.3774701118
Cu     11.0479045226     3.5315147301    15.3771972946
Cu     12.2765483612     5.6595853029    15.3771297580
Cu     13.5054403737     7.7883030906    15.3772812510
Cu      1.2138576474     0.6840935934    17.5705147770
Cu      2.4425472920     2.8119658250    17.5667655185
Cu      3.6701540921     4.9388758079    17.5692038389
Cu      4.8991046768     7.0687895580    17.5711396055
Cu      3.6717117942     0.6829268075    17.5714210888
Cu      4.8991316646     2.8115908900    17.5725319263
Cu      6.1195211036     4.9402759119    17.5652610482
Cu      7.3523882130     7.0751305260    17.5680014530
Cu      6.1295966724     0.6835618202    17.5692692580
Cu      7.3519610084     2.8065867073    17.5642297225
Cu      8.5949653583     4.9478939844    17.4714468202
Cu      9.8187590136     7.0759959702    17.5658643294
Cu      8.5865630715     0.6862950141    17.5668106436
Cu      9.8177913535     2.8072890126    17.5701444927
Cu     11.0501705216     4.9417718547    17.5634859656
Cu     12.2725743841     7.0689141475    17.5718262297
O       7.4559301282     4.0192452275    21.6764297910
O       8.5638826581     4.9457294909    19.3974870988
O       8.5536690150     4.9376942055    24.1242371279
C       8.5574970744     4.9299484023    21.7137823988
C       9.3992982100     4.7383724793    20.4701487029
C       9.3731244908     4.7232568970    22.9765243559
H       8.0989296320     5.9482937003    21.7097635431
H       9.7861021130     3.7049757438    20.4017292905
H      10.2265033954     5.4355546318    20.3995680064
H      10.2328906066     5.4022744601    23.0079588642
H       9.7413270339     3.6769309598    23.0080719407
H       7.8439487849     3.1177899417    21.6868045673
H       7.8037880885     4.2967813586    19.3798456174
H       9.1188815954     4.7774246680    24.8977683907
78
Step 2 | ATOMIC_POSITIONS (angstrom) | Cartesian Angstrom
Ni      1.2286497520     0.7093615510    11.2500000000
Ni      2.4572990100     2.8374462050    11.2500000000
Ni      3.6859482670     4.9655308580    11.2500000000
Ni      4.9145975240     7.0936155120    11.2500000000
Ni      3.6859497520     0.7093615510    11.2500000000
Ni      4.9145990100     2.8374462050    11.2500000000
Ni      6.1432482670     4.9655308580    11.2500000000
Ni      7.3718975240     7.0936155120    11.2500000000
Ni      6.1432497520     0.7093615510    11.2500000000
Ni      7.3718990100     2.8374462050    11.2500000000
Ni      8.6005482670     4.9655308580    11.2500000000
Ni      9.8291975240     7.0936155120    11.2500000000
Ni      8.6005497520     0.7093615510    11.2500000000
Ni      9.8291990100     2.8374462050    11.2500000000
Ni     11.0578482670     4.9655308580    11.2500000000
Ni     12.2864975240     7.0936155120    11.2500000000
Ni      4.9099156437     8.5053429943    13.3011714153
Ni     11.0531329444     2.1206495289    13.3008022987
Ni     12.2817169742     4.2489790338    13.3006009374
Ni     13.5101985337     6.3773433495    13.3009431249
Ni      7.3672568657     8.5047181049    13.3011773704
Ni      3.6813642393     2.1207834059    13.3007249916
Ni      4.9098915811     4.2493198243    13.3009122649
Ni      6.1382079689     6.3774560515    13.3011135672
Ni      9.8241033231     8.5046823230    13.3010832757
Ni      6.1383369811     2.1207818053    13.3007715317
Ni      7.3668809572     4.2490234566    13.3008058444
Ni      8.5953896190     6.3767159329    13.3009510356
Ni     12.2816608155     8.5051500050    13.3006064561
Ni      8.5958456854     2.1206091639    13.3010363913
Ni      9.8244550653     4.2487038258    13.3007275536
Ni     11.0528529681     6.3769409810    13.3006612510
Cu      2.4478273934     1.4024593494    15.3768195279
Cu      3.6763308064     3.5307008763    15.3768060769
Cu      4.9041378635     5.6597275327    15.3773446705
Cu      6.1330260753     7.7878909917    15.3784795762
Cu      4.9046987935     1.4026027494    15.3777978376
Cu      6.1325026874     3.5313494179    15.3777258642
Cu      7.3610720821     5.6598451508    15.3779275454
Cu      8.5906751573     7.7868955285    15.3785352684
Cu      7.3621786350     1.4037478132    15.3762149869
Cu      8.5904727219     3.5321453649    15.3780682333
Cu      9.8190628607     5.6596863340    15.3769316566
Cu     11.0487962789     7.7874997913    15.3777155251
Cu      9.8196454140     1.4041813301    15.3774701118
Cu     11.0479045226     3.5315147301    15.3771972946
Cu     12.2765483612     5.6595853029    15.3771297580
Cu     13.5054403737     7.7883030906    15.3772812510
Cu      1.2138474108     0.6845774452    17.5713575322
Cu      2.4422467183     2.8122147301    17.5671405916
Cu      3.6697427564     4.9393350849    17.5696620692
Cu      4.8990031661     7.0690115935    17.5706779001
Cu      3.6717508199     0.6834785947    17.5715601712
Cu      4.8998097943     2.8118227367    17.5731357606
Cu      6.1123244344     4.9393151157    17.5589063418
Cu      7.3493487632     7.0801017125    17.5647539336
Cu      6.1293623326     0.6838010487    17.5695542524
Cu      7.3476295691     2.8004977444    17.5580009149
Cu      8.6038931511     4.9519646656    17.4111659719
Cu      9.8225360019     7.0824830321    17.5612784108
Cu      8.5865963950     0.6866353960    17.5669603349
Cu      9.8207372354     2.8012332344    17.5647913156
Cu     11.0582066100     4.9418888599    17.5569266055
Cu     12.2725953331     7.0688348242    17.5718623700
O       7.4512478910     4.0111364493    21.6686630372
O       8.5241742966     4.9583908378    19.4101513664
O       8.5488482646     4.9422474187    24.1285011882
C       8.5590838857     4.9311077607    21.7352487834
C       9.4152066814     4.7240235073    20.5086259016
C       9.3727270508     4.7187333386    22.9863495974
H       8.1045481029     5.9374726224    21.7098421730
H       9.7949745166     3.7036431715    20.4088833837
H      10.2361205587     5.4433936085    20.3965335451
H      10.2417915119     5.4060897674    23.0010035255
H       9.7465702719     3.6768013184    22.9997222003
H       7.8370723902     3.1211177512    21.6894975396
H       7.7997371584     4.2978197206    19.4005636663
H       9.1149169041     4.7788205271    24.8996379043
78
Step 3 | ATOMIC_POSITIONS (angstrom) | Cartesian Angstrom
Ni      1.2286497520     0.7093615510    11.2500000000
Ni      2.4572990100     2.8374462050    11.2500000000
Ni      3.6859482670     4.9655308580    11.2500000000
Ni      4.9145975240     7.0936155120    11.2500000000
Ni      3.6859497520     0.7093615510    11.2500000000
Ni      4.9145990100     2.8374462050    11.2500000000
Ni      6.1432482670     4.9655308580    11.2500000000
Ni      7.3718975240     7.0936155120    11.2500000000
Ni      6.1432497520     0.7093615510    11.2500000000
Ni      7.3718990100     2.8374462050    11.2500000000
Ni      8.6005482670     4.9655308580    11.2500000000
Ni      9.8291975240     7.0936155120    11.2500000000
Ni      8.6005497520     0.7093615510    11.2500000000
Ni      9.8291990100     2.8374462050    11.2500000000
Ni     11.0578482670     4.9655308580    11.2500000000
Ni     12.2864975240     7.0936155120    11.2500000000
Ni      4.9099156437     8.5053429943    13.3011714153
Ni     11.0531329444     2.1206495289    13.3008022987
Ni     12.2817169742     4.2489790338    13.3006009374
Ni     13.5101985337     6.3773433495    13.3009431249
Ni      7.3672568657     8.5047181049    13.3011773704
Ni      3.6813642393     2.1207834059    13.3007249916
Ni      4.9098915811     4.2493198243    13.3009122649
Ni      6.1382079689     6.3774560515    13.3011135672
Ni      9.8241033231     8.5046823230    13.3010832757
Ni      6.1383369811     2.1207818053    13.3007715317
Ni      7.3668809572     4.2490234566    13.3008058444
Ni      8.5953896190     6.3767159329    13.3009510356
Ni     12.2816608155     8.5051500050    13.3006064561
Ni      8.5958456854     2.1206091639    13.3010363913
Ni      9.8244550653     4.2487038258    13.3007275536
Ni     11.0528529681     6.3769409810    13.3006612510
Cu      2.4478273934     1.4024593494    15.3768195279
Cu      3.6763308064     3.5307008763    15.3768060769
Cu      4.9041378635     5.6597275327    15.3773446705
Cu      6.1330260753     7.7878909917    15.3784795762
Cu      4.9046987935     1.4026027494    15.3777978376
Cu      6.1325026874     3.5313494179    15.3777258642
Cu      7.3610720821     5.6598451508    15.3779275454
Cu      8.5906751573     7.7868955285    15.3785352684
Cu      7.3621786350     1.4037478132    15.3762149869
Cu      8.5904727219     3.5321453649    15.3780682333
Cu      9.8190628607     5.6596863340    15.3769316566
Cu     11.0487962789     7.7874997913    15.3777155251
Cu      9.8196454140     1.4041813301    15.3774701118
Cu     11.0479045226     3.5315147301    15.3771972946
Cu     12.2765483612     5.6595853029    15.3771297580
Cu     13.5054403737     7.7883030906    15.3772812510
Cu      1.2139886959     0.6850356166    17.5722085569
Cu      2.4424578393     2.8121919753    17.5676433474
Cu      3.6695111588     4.9397337333    17.5701682405
Cu      4.8984740046     7.0695575736    17.5702342742
Cu      3.6717116343     0.6846484248    17.5717357815
Cu      4.8998893181     2.8118333208    17.5739886164
Cu      6.1066155264     4.9385227184    17.5516989334
Cu      7.3468681336     7.0839851582    17.5617554733
Cu      6.1291256009     0.6840792749    17.5698423834
Cu      7.3444328069     2.7957557268    17.5509696900
Cu      8.6114481759     4.9542602935    17.3741467807
Cu      9.8261317527     7.0883913137    17.5566596012
Cu      8.5865644845     0.6863842379    17.5672448491
Cu      9.8228607443     2.7964960800    17.5593511942
Cu     11.0654269363     4.9419943205    17.5502281728
Cu     12.2731335261     7.0692164616    17.5719998660
O       7.4480317085     4.0154398287    21.6637772348
O       8.5095809646     4.9767044758    19.4196561419
O       8.5480793533     4.9455901431    24.1337170071
C       8.5602234944     4.9229983791    21.7535917587
C       9.4121450319     4.7283226831    20.5187834090
C       9.3749352107     4.7190717427    23.0003970170
H       8.1098628787     5.9288191470    21.7114929721
H       9.8069179700     3.6963218390    20.4177464783
H      10.2409520381     5.4461011707    20.3961901044
H      10.2451723933     5.4054188769    22.9943544687
H       9.7522123053     3.6765279586    22.9933110202
H       7.8324091436     3.1144921631    21.6932430141
H       7.7879351655     4.2916015631    19.4254447186
H       9.1095746567     4.7806411323    24.9048025153
78
Step 4 | ATOMIC_POSITIONS (angstrom) | Cartesian Angstrom
Ni      1.2286497520     0.7093615510    11.2500000000
Ni      2.4572990100     2.8374462050    11.2500000000
Ni      3.6859482670     4.9655308580    11.2500000000
Ni      4.9145975240     7.0936155120    11.2500000000
Ni      3.6859497520     0.7093615510    11.2500000000
Ni      4.9145990100     2.8374462050    11.2500000000
Ni      6.1432482670     4.9655308580    11.2500000000
Ni      7.3718975240     7.0936155120    11.2500000000
Ni      6.1432497520     0.7093615510    11.2500000000
Ni      7.3718990100     2.8374462050    11.2500000000
Ni      8.6005482670     4.9655308580    11.2500000000
Ni      9.8291975240     7.0936155120    11.2500000000
Ni      8.6005497520     0.7093615510    11.2500000000
Ni      9.8291990100     2.8374462050    11.2500000000
Ni     11.0578482670     4.9655308580    11.2500000000
Ni     12.2864975240     7.0936155120    11.2500000000
Ni      4.9099156437     8.5053429943    13.3011714153
Ni     11.0531329444     2.1206495289    13.3008022987
Ni     12.2817169742     4.2489790338    13.3006009374
Ni     13.5101985337     6.3773433495    13.3009431249
Ni      7.3672568657     8.5047181049    13.3011773704
Ni      3.6813642393     2.1207834059    13.3007249916
Ni      4.9098915811     4.2493198243    13.3009122649
Ni      6.1382079689     6.3774560515    13.3011135672
Ni      9.8241033231     8.5046823230    13.3010832757
Ni      6.1383369811     2.1207818053    13.3007715317
Ni      7.3668809572     4.2490234566    13.3008058444
Ni      8.5953896190     6.3767159329    13.3009510356
Ni     12.2816608155     8.5051500050    13.3006064561
Ni      8.5958456854     2.1206091639    13.3010363913
Ni      9.8244550653     4.2487038258    13.3007275536
Ni     11.0528529681     6.3769409810    13.3006612510
Cu      2.4478273934     1.4024593494    15.3768195279
Cu      3.6763308064     3.5307008763    15.3768060769
Cu      4.9041378635     5.6597275327    15.3773446705
Cu      6.1330260753     7.7878909917    15.3784795762
Cu      4.9046987935     1.4026027494    15.3777978376
Cu      6.1325026874     3.5313494179    15.3777258642
Cu      7.3610720821     5.6598451508    15.3779275454
Cu      8.5906751573     7.7868955285    15.3785352684
Cu      7.3621786350     1.4037478132    15.3762149869
Cu      8.5904727219     3.5321453649    15.3780682333
Cu      9.8190628607     5.6596863340    15.3769316566
Cu     11.0487962789     7.7874997913    15.3777155251
Cu      9.8196454140     1.4041813301    15.3774701118
Cu     11.0479045226     3.5315147301    15.3771972946
Cu     12.2765483612     5.6595853029    15.3771297580
Cu     13.5054403737     7.7883030906    15.3772812510
Cu      1.2142507643     0.6853905699    17.5730474000
Cu      2.4431235645     2.8119263041    17.5682265922
Cu      3.6695451422     4.9400404481    17.5707621669
Cu      4.8976722703     7.0703355953    17.5698678577
Cu      3.6715842014     0.6862284991    17.5719513843
Cu      4.8993961283     2.8116476539    17.5750422855
Cu      6.1031248907     4.9379411465    17.5443999566
Cu      7.3452781744     7.0864168671    17.5591181169
Cu      6.1289520421     0.6844295018    17.5701753599
Cu      7.3427253259     2.7930650315    17.5441110372
Cu      8.6168673427     4.9549090930    17.3555939343
Cu      9.8290876925     7.0930261518    17.5523217597
Cu      8.5864889431     0.6856394173    17.5676398853
Cu      9.8240490311     2.7935386824    17.5543171608
Cu     11.0710341349     4.9420999868    17.5439382704
Cu     12.2741086219     7.0699986554    17.5722646219
O       7.4499715416     4.0101258564    21.6633712238
O       8.4961765536     4.9827813753    19.4291411202
O       8.5489997207     4.9483821798    24.1401461950
C       8.5616759008     4.9179630666    21.7611161211
C       9.4096293832     4.7318580421    20.5149454400
C       9.3774669988     4.7176646238    23.0102608552
H       8.1146694795     5.9219989389    21.7162326651
H       9.8143038793     3.6978627986    20.4265397142
H      10.2403713388     5.4451589299    20.3985736368
H      10.2463809115     5.4036201321    22.9894809687
H       9.7579497653     3.6768057037    22.9908476413
H       7.8229726861     3.1144113320    21.6972342847
H       7.7840537751     4.2948755619    19.4502922365
H       9.1045676249     4.7823533963    24.9148813955
78
Step 5 | ATOMIC_POSITIONS (angstrom) | Cartesian Angstrom
Ni      1.2286497520     0.7093615510    11.2500000000
Ni      2.4572990100     2.8374462050    11.2500000000
Ni      3.6859482670     4.9655308580    11.2500000000
Ni      4.9145975240     7.0936155120    11.2500000000
Ni      3.6859497520     0.7093615510    11.2500000000
Ni      4.9145990100     2.8374462050    11.2500000000
Ni      6.1432482670     4.9655308580    11.2500000000
Ni      7.3718975240     7.0936155120    11.2500000000
Ni      6.1432497520     0.7093615510    11.2500000000
Ni      7.3718990100     2.8374462050    11.2500000000
Ni      8.6005482670     4.9655308580    11.2500000000
Ni      9.8291975240     7.0936155120    11.2500000000
Ni      8.6005497520     0.7093615510    11.2500000000
Ni      9.8291990100     2.8374462050    11.2500000000
Ni     11.0578482670     4.9655308580    11.2500000000
Ni     12.2864975240     7.0936155120    11.2500000000
Ni      4.9099156437     8.5053429943    13.3011714153
Ni     11.0531329444     2.1206495289    13.3008022987
Ni     12.2817169742     4.2489790338    13.3006009374
Ni     13.5101985337     6.3773433495    13.3009431249
Ni      7.3672568657     8.5047181049    13.3011773704
Ni      3.6813642393     2.1207834059    13.3007249916
Ni      4.9098915811     4.2493198243    13.3009122649
Ni      6.1382079689     6.3774560515    13.3011135672
Ni      9.8241033231     8.5046823230    13.3010832757
Ni      6.1383369811     2.1207818053    13.3007715317
Ni      7.3668809572     4.2490234566    13.3008058444
Ni      8.5953896190     6.3767159329    13.3009510356
Ni     12.2816608155     8.5051500050    13.3006064561
Ni      8.5958456854     2.1206091639    13.3010363913
Ni      9.8244550653     4.2487038258    13.3007275536
Ni     11.0528529681     6.3769409810    13.3006612510
Cu      2.4478273934     1.4024593494    15.3768195279
Cu      3.6763308064     3.5307008763    15.3768060769
Cu      4.9041378635     5.6597275327    15.3773446705
Cu      6.1330260753     7.7878909917    15.3784795762
Cu      4.9046987935     1.4026027494    15.3777978376
Cu      6.1325026874     3.5313494179    15.3777258642
Cu      7.3610720821     5.6598451508    15.3779275454
Cu      8.5906751573     7.7868955285    15.3785352684
Cu      7.3621786350     1.4037478132    15.3762149869
Cu      8.5904727219     3.5321453649    15.3780682333
Cu      9.8190628607     5.6596863340    15.3769316566
Cu     11.0487962789     7.7874997913    15.3777155251
Cu      9.8196454140     1.4041813301    15.3774701118
Cu     11.0479045226     3.5315147301    15.3771972946
Cu     12.2765483612     5.6595853029    15.3771297580
Cu     13.5054403737     7.7883030906    15.3772812510
Cu      1.2147646717     0.6858479967    17.5744460247
Cu      2.4445353740     2.8113145884    17.5692851454
Cu      3.6700290273     4.9404572082    17.5718939778
Cu      4.8962810920     7.0717310482    17.5693573363
Cu      3.6712848103     0.6890178343    17.5723310605
Cu      4.8981734166     2.8112308619    17.5770046645
Cu      6.0999101279     4.9372997679    17.5322736617
Cu      7.3438210970     7.0887284104    17.5551154155
Cu      6.1288287448     0.6852417734    17.5708385409
Cu      7.3415145217     2.7908176869    17.5329812409
Cu      8.6232455105     4.9546353539    17.3439807702
Cu      9.8329962410     7.0988723115    17.5454650073
Cu      8.5863366881     0.6841323839    17.5684287678
Cu      9.8251225431     2.7906344447    17.5465229307
Cu     11.0781830527     4.9423183581    17.5340794787
Cu     12.2760763534     7.0716249919    17.5728399595
O       7.4501754509     4.0112498277    21.6657885883
O       8.4818758622     4.9895463486    19.4390688310
O       8.5528937583     4.9520166864    24.1513960586
C       8.5669916921     4.9094555496    21.7651974423
C       9.4041319583     4.7336204739    20.5092037333
C       9.3800319992     4.7138320294    23.0184492497
H       8.1204795564     5.9134417968    21.7268645851
H       9.8222305803     3.7073923870    20.4386512963
H      10.2368694876     5.4440182150    20.4026915960
H      10.2475953310     5.4006927149    22.9840285181
H       9.7675677479     3.6769268164    22.9917741025
H       7.8111068822     3.1036778755    21.7049994857
H       7.7762110114     4.3017513115    19.4916629610
H       9.0965287693     4.7851373528    24.9351897264
78
Step 6 | ATOMIC_POSITIONS (angstrom) | Cartesian Angstrom
Ni      1.2286497520     0.7093615510    11.2500000000
Ni      2.4572990100     2.8374462050    11.2500000000
Ni      3.6859482670     4.9655308580    11.2500000000
Ni      4.9145975240     7.0936155120    11.2500000000
Ni      3.6859497520     0.7093615510    11.2500000000
Ni      4.9145990100     2.8374462050    11.2500000000
Ni      6.1432482670     4.9655308580    11.2500000000
Ni      7.3718975240     7.0936155120    11.2500000000
Ni      6.1432497520     0.7093615510    11.2500000000
Ni      7.3718990100     2.8374462050    11.2500000000
Ni      8.6005482670     4.9655308580    11.2500000000
Ni      9.8291975240     7.0936155120    11.2500000000
Ni      8.6005497520     0.7093615510    11.2500000000
Ni      9.8291990100     2.8374462050    11.2500000000
Ni     11.0578482670     4.9655308580    11.2500000000
Ni     12.2864975240     7.0936155120    11.2500000000
Ni      4.9099156437     8.5053429943    13.3011714153
Ni     11.0531329444     2.1206495289    13.3008022987
Ni     12.2817169742     4.2489790338    13.3006009374
Ni     13.5101985337     6.3773433495    13.3009431249
Ni      7.3672568657     8.5047181049    13.3011773704
Ni      3.6813642393     2.1207834059    13.3007249916
Ni      4.9098915811     4.2493198243    13.3009122649
Ni      6.1382079689     6.3774560515    13.3011135672
Ni      9.8241033231     8.5046823230    13.3010832757
Ni      6.1383369811     2.1207818053    13.3007715317
Ni      7.3668809572     4.2490234566    13.3008058444
Ni      8.5953896190     6.3767159329    13.3009510356
Ni     12.2816608155     8.5051500050    13.3006064561
Ni      8.5958456854     2.1206091639    13.3010363913
Ni      9.8244550653     4.2487038258    13.3007275536
Ni     11.0528529681     6.3769409810    13.3006612510
Cu      2.4478273934     1.4024593494    15.3768195279
Cu      3.6763308064     3.5307008763    15.3768060769
Cu      4.9041378635     5.6597275327    15.3773446705
Cu      6.1330260753     7.7878909917    15.3784795762
Cu      4.9046987935     1.4026027494    15.3777978376
Cu      6.1325026874     3.5313494179    15.3777258642
Cu      7.3610720821     5.6598451508    15.3779275454
Cu      8.5906751573     7.7868955285    15.3785352684
Cu      7.3621786350     1.4037478132    15.3762149869
Cu      8.5904727219     3.5321453649    15.3780682333
Cu      9.8190628607     5.6596863340    15.3769316566
Cu     11.0487962789     7.7874997913    15.3777155251
Cu      9.8196454140     1.4041813301    15.3774701118
Cu     11.0479045226     3.5315147301    15.3771972946
Cu     12.2765483612     5.6595853029    15.3771297580
Cu     13.5054403737     7.7883030906    15.3772812510
Cu      1.2154263914     0.6862446670    17.5762503220
Cu      2.4463632645     2.8105360220    17.5707064290
Cu      3.6712718010     4.9409049408    17.5735793602
Cu      4.8948515189     7.0733794122    17.5688668451
Cu      3.6708488646     0.6922613071    17.5728168156
Cu      4.8965390389     2.8107730681    17.5797136279
Cu      6.0989607917     4.9369723992    17.5173590425
Cu      7.3435308931     7.0896412459    17.5505083381
Cu      6.1289680450     0.6866853591    17.5718992798
Cu      7.3418049237     2.7905409904    17.5196635473
Cu      8.6280885380     4.9530887951    17.3498170759
Cu      9.8364734029     7.1036551858    17.5373571615
Cu      8.5861771727     0.6823326530    17.5695702149
Cu      9.8256772810     2.7892946327    17.5375545080
Cu     11.0842649701     4.9427147623    17.5226606702
Cu     12.2786941788     7.0738346484    17.5737361816
O       7.4522433352     4.0041772172    21.6717641419
O       8.4736073105     4.9931993121    19.4465301796
O       8.5604428597     4.9548621448    24.1627614107
C       8.5726083141     4.9027125518    21.7669974342
C       9.3987411532     4.7394579825    20.5061074841
C       9.3841722208     4.7091935876    23.0237793102
H       8.1265513797     5.9051714121    21.7426032050
H       9.8288985904     3.7197668076    20.4485398497
H      10.2292831340     5.4435654188    20.4074300225
H      10.2477526631     5.3966165589    22.9802042437
H       9.7795549811     3.6754210131    22.9990254661
H       7.7935235800     3.0953590547    21.7156009987
H       7.7615787538     4.3114237228    19.5429200899
H       9.0873864910     4.7884385613    24.9617981159
78
Step 7 | ATOMIC_POSITIONS (angstrom) | Cartesian Angstrom
Ni      1.2286497520     0.7093615510    11.2500000000
Ni      2.4572990100     2.8374462050    11.2500000000
Ni      3.6859482670     4.9655308580    11.2500000000
Ni      4.9145975240     7.0936155120    11.2500000000
Ni      3.6859497520     0.7093615510    11.2500000000
Ni      4.9145990100     2.8374462050    11.2500000000
Ni      6.1432482670     4.9655308580    11.2500000000
Ni      7.3718975240     7.0936155120    11.2500000000
Ni      6.1432497520     0.7093615510    11.2500000000
Ni      7.3718990100     2.8374462050    11.2500000000
Ni      8.6005482670     4.9655308580    11.2500000000
Ni      9.8291975240     7.0936155120    11.2500000000
Ni      8.6005497520     0.7093615510    11.2500000000
Ni      9.8291990100     2.8374462050    11.2500000000
Ni     11.0578482670     4.9655308580    11.2500000000
Ni     12.2864975240     7.0936155120    11.2500000000
Ni      4.9099156437     8.5053429943    13.3011714153
Ni     11.0531329444     2.1206495289    13.3008022987
Ni     12.2817169742     4.2489790338    13.3006009374
Ni     13.5101985337     6.3773433495    13.3009431249
Ni      7.3672568657     8.5047181049    13.3011773704
Ni      3.6813642393     2.1207834059    13.3007249916
Ni      4.9098915811     4.2493198243    13.3009122649
Ni      6.1382079689     6.3774560515    13.3011135672
Ni      9.8241033231     8.5046823230    13.3010832757
Ni      6.1383369811     2.1207818053    13.3007715317
Ni      7.3668809572     4.2490234566    13.3008058444
Ni      8.5953896190     6.3767159329    13.3009510356
Ni     12.2816608155     8.5051500050    13.3006064561
Ni      8.5958456854     2.1206091639    13.3010363913
Ni      9.8244550653     4.2487038258    13.3007275536
Ni     11.0528529681     6.3769409810    13.3006612510
Cu      2.4478273934     1.4024593494    15.3768195279
Cu      3.6763308064     3.5307008763    15.3768060769
Cu      4.9041378635     5.6597275327    15.3773446705
Cu      6.1330260753     7.7878909917    15.3784795762
Cu      4.9046987935     1.4026027494    15.3777978376
Cu      6.1325026874     3.5313494179    15.3777258642
Cu      7.3610720821     5.6598451508    15.3779275454
Cu      8.5906751573     7.7868955285    15.3785352684
Cu      7.3621786350     1.4037478132    15.3762149869
Cu      8.5904727219     3.5321453649    15.3780682333
Cu      9.8190628607     5.6596863340    15.3769316566
Cu     11.0487962789     7.7874997913    15.3777155251
Cu      9.8196454140     1.4041813301    15.3774701118
Cu     11.0479045226     3.5315147301    15.3771972946
Cu     12.2765483612     5.6595853029    15.3771297580
Cu     13.5054403737     7.7883030906    15.3772812510
Cu      1.2161987394     0.6865550872    17.5787296872
Cu      2.4483693088     2.8097944889    17.5726342988
Cu      3.6736447882     4.9414733195    17.5761995343
Cu      4.8938885818     7.0751380259    17.5683930782
Cu      3.6703168875     0.6956004203    17.5734169467
Cu      4.8949219060     2.8105295927    17.5835218804
Cu      6.1006355491     4.9370643427    17.4987142388
Cu      7.3447177504     7.0891607786    17.5448551557
Cu      6.1295429314     0.6891529146    17.5736584353
Cu      7.3436622656     2.7924407561    17.5035364226
Cu      8.6314235419     4.9504206479    17.3731884874
Cu      9.8394122946     7.1071726223    17.5273165663
Cu      8.5861180108     0.6807200174    17.5711878256
Cu      9.8260929726     2.7894727508    17.5268492673
Cu     11.0891947936     4.9434303276    17.5089354001
Cu     12.2818349309     7.0765677452    17.5750850481
O       7.4520393557     4.0004332213    21.6797923301
O       8.4632166081     4.9865730296    19.4546004360
O       8.5728199141     4.9566465034    24.1753709211
C       8.5756420891     4.8942066107    21.7733865855
C       9.3953286199     4.7459548137    20.5085699366
C       9.3914193509     4.7018844474    23.0302484697
H       8.1315711817     5.8977044965    21.7650286460
H       9.8344577723     3.7350408863    20.4552156573
H      10.2202234194     5.4489129285    20.4126419132
H      10.2487895717     5.3923409804    22.9780549469
H       9.7946252445     3.6721023364    23.0140284961
H       7.7738473613     3.0792944798    21.7312842709
H       7.7415609443     4.3313714529    19.6078666831
H       9.0759611468     4.7927500010    24.9916771332
78
Step 8 | ATOMIC_POSITIONS (angstrom) | Cartesian Angstrom
Ni      1.2286497520     0.7093615510    11.2500000000
Ni      2.4572990100     2.8374462050    11.2500000000
Ni      3.6859482670     4.9655308580    11.2500000000
Ni      4.9145975240     7.0936155120    11.2500000000
Ni      3.6859497520     0.7093615510    11.2500000000
Ni      4.9145990100     2.8374462050    11.2500000000
Ni      6.1432482670     4.9655308580    11.2500000000
Ni      7.3718975240     7.0936155120    11.2500000000
Ni      6.1432497520     0.7093615510    11.2500000000
Ni      7.3718990100     2.8374462050    11.2500000000
Ni      8.6005482670     4.9655308580    11.2500000000
Ni      9.8291975240     7.0936155120    11.2500000000
Ni      8.6005497520     0.7093615510    11.2500000000
Ni      9.8291990100     2.8374462050    11.2500000000
Ni     11.0578482670     4.9655308580    11.2500000000
Ni     12.2864975240     7.0936155120    11.2500000000
Ni      4.9099156437     8.5053429943    13.3011714153
Ni     11.0531329444     2.1206495289    13.3008022987
Ni     12.2817169742     4.2489790338    13.3006009374
Ni     13.5101985337     6.3773433495    13.3009431249
Ni      7.3672568657     8.5047181049    13.3011773704
Ni      3.6813642393     2.1207834059    13.3007249916
Ni      4.9098915811     4.2493198243    13.3009122649
Ni      6.1382079689     6.3774560515    13.3011135672
Ni      9.8241033231     8.5046823230    13.3010832757
Ni      6.1383369811     2.1207818053    13.3007715317
Ni      7.3668809572     4.2490234566    13.3008058444
Ni      8.5953896190     6.3767159329    13.3009510356
Ni     12.2816608155     8.5051500050    13.3006064561
Ni      8.5958456854     2.1206091639    13.3010363913
Ni      9.8244550653     4.2487038258    13.3007275536
Ni     11.0528529681     6.3769409810    13.3006612510
Cu      2.4478273934     1.4024593494    15.3768195279
Cu      3.6763308064     3.5307008763    15.3768060769
Cu      4.9041378635     5.6597275327    15.3773446705
Cu      6.1330260753     7.7878909917    15.3784795762
Cu      4.9046987935     1.4026027494    15.3777978376
Cu      6.1325026874     3.5313494179    15.3777258642
Cu      7.3610720821     5.6598451508    15.3779275454
Cu      8.5906751573     7.7868955285    15.3785352684
Cu      7.3621786350     1.4037478132    15.3762149869
Cu      8.5904727219     3.5321453649    15.3780682333
Cu      9.8190628607     5.6596863340    15.3769316566
Cu     11.0487962789     7.7874997913    15.3777155251
Cu      9.8196454140     1.4041813301    15.3774701118
Cu     11.0479045226     3.5315147301    15.3771972946
Cu     12.2765483612     5.6595853029    15.3771297580
Cu     13.5054403737     7.7883030906    15.3772812510
Cu      1.2169878030     0.6867122832    17.5821358563
Cu      2.4500757875     2.8095376748    17.5751162584
Cu      3.6774492275     4.9422685137    17.5801539321
Cu      4.8942440766     7.0766245067    17.5679789254
Cu      3.6698728014     0.6982185039    17.5740734794
Cu      4.8941092548     2.8109454463    17.5886075872
Cu      6.1052231878     4.9378171534    17.4766586465
Cu      7.3478042078     7.0873701613    17.5380458805
Cu      6.1307640601     0.6929346379    17.5764869187
Cu      7.3470440671     2.7965227302    17.4851419843
Cu      8.6328526189     4.9470874205    17.4138104759
Cu      9.8414212298     7.1086971791    17.5153177041
Cu      8.5863535270     0.6801771612    17.5733319550
Cu      9.8270107619     2.7911477139    17.5146083908
Cu     11.0923155445     4.9446437854    17.4932145182
Cu     12.2850090065     7.0794554796    17.5769605076
O       7.4498727266     3.9905703475    21.6898142824
O       8.4551895242     4.9732241120    19.4662780294
O       8.5873404921     4.9577593218    24.1873897447
C       8.5773686377     4.8856851292    21.7890256636
C       9.3925769810     4.7500665803    20.5211945572
C       9.4015791693     4.6911614646    23.0413711335
H       8.1345467132     5.8907299057    21.7956988137
H       9.8400713806     3.7505289173    20.4570609828
H      10.2112911283     5.4655387990    20.4175085706
H      10.2531745658     5.3890558987    22.9780161324
H       9.8133023239     3.6655949817    23.0383591843
H       7.7497984104     3.0642179968    21.7530100932
H       7.7073797981     4.3585912416    19.6892507182
H       9.0647387813     4.7973588788    25.0228100476
78
Step 9 | ATOMIC_POSITIONS (angstrom) | Cartesian Angstrom
Ni      1.2286497520     0.7093615510    11.2500000000
Ni      2.4572990100     2.8374462050    11.2500000000
Ni      3.6859482670     4.9655308580    11.2500000000
Ni      4.9145975240     7.0936155120    11.2500000000
Ni      3.6859497520     0.7093615510    11.2500000000
Ni      4.9145990100     2.8374462050    11.2500000000
Ni      6.1432482670     4.9655308580    11.2500000000
Ni      7.3718975240     7.0936155120    11.2500000000
Ni      6.1432497520     0.7093615510    11.2500000000
Ni      7.3718990100     2.8374462050    11.2500000000
Ni      8.6005482670     4.9655308580    11.2500000000
Ni      9.8291975240     7.0936155120    11.2500000000
Ni      8.6005497520     0.7093615510    11.2500000000
Ni      9.8291990100     2.8374462050    11.2500000000
Ni     11.0578482670     4.9655308580    11.2500000000
Ni     12.2864975240     7.0936155120    11.2500000000
Ni      4.9099156437     8.5053429943    13.3011714153
Ni     11.0531329444     2.1206495289    13.3008022987
Ni     12.2817169742     4.2489790338    13.3006009374
Ni     13.5101985337     6.3773433495    13.3009431249
Ni      7.3672568657     8.5047181049    13.3011773704
Ni      3.6813642393     2.1207834059    13.3007249916
Ni      4.9098915811     4.2493198243    13.3009122649
Ni      6.1382079689     6.3774560515    13.3011135672
Ni      9.8241033231     8.5046823230    13.3010832757
Ni      6.1383369811     2.1207818053    13.3007715317
Ni      7.3668809572     4.2490234566    13.3008058444
Ni      8.5953896190     6.3767159329    13.3009510356
Ni     12.2816608155     8.5051500050    13.3006064561
Ni      8.5958456854     2.1206091639    13.3010363913
Ni      9.8244550653     4.2487038258    13.3007275536
Ni     11.0528529681     6.3769409810    13.3006612510
Cu      2.4478273934     1.4024593494    15.3768195279
Cu      3.6763308064     3.5307008763    15.3768060769
Cu      4.9041378635     5.6597275327    15.3773446705
Cu      6.1330260753     7.7878909917    15.3784795762
Cu      4.9046987935     1.4026027494    15.3777978376
Cu      6.1325026874     3.5313494179    15.3777258642
Cu      7.3610720821     5.6598451508    15.3779275454
Cu      8.5906751573     7.7868955285    15.3785352684
Cu      7.3621786350     1.4037478132    15.3762149869
Cu      8.5904727219     3.5321453649    15.3780682333
Cu      9.8190628607     5.6596863340    15.3769316566
Cu     11.0487962789     7.7874997913    15.3777155251
Cu      9.8196454140     1.4041813301    15.3774701118
Cu     11.0479045226     3.5315147301    15.3771972946
Cu     12.2765483612     5.6595853029    15.3771297580
Cu     13.5054403737     7.7883030906    15.3772812510
Cu      1.2174428414     0.6865703433    17.5853986583
Cu      2.4504756169     2.8103100390    17.5771801414
Cu      3.6813987107     4.9431164397    17.5843177334
Cu      4.8966079216     7.0769367192    17.5677999140
Cu      3.6699561807     0.6983718787    17.5744061721
Cu      4.8951922615     2.8123005708    17.5931375115
Cu      6.1111920331     4.9391767539    17.4606291364
Cu      7.3519674378     7.0851390833    17.5326864193
Cu      6.1323193525     0.6966677327    17.5796724729
Cu      7.3505937655     2.8012139048    17.4727226764
Cu      8.6314783498     4.9447740635    17.4558782496
Cu      9.8413871771     7.1069720810    17.5062188134
Cu      8.5870368937     0.6817466468    17.5751572025
Cu      9.8287194326     2.7936523917    17.5059305424
Cu     11.0917687749     4.9460507914    17.4822385263
Cu     12.2865141387     7.0810344317    17.5786639314
O       7.4446676626     3.9843307738    21.6981362557
O       8.4433997387     4.9511977383    19.4839664836
O       8.5974125566     4.9574943933    24.1973880174
C       8.5765716473     4.8782650452    21.8098817458
C       9.3969104670     4.7565198787    20.5403630651
C       9.4126262064     4.6826815041    23.0552381497
H       8.1333702366     5.8856445934    21.8248145397
H       9.8457174485     3.7559947485    20.4528592388
H      10.2014989055     5.4863041264    20.4213692608
H      10.2595130211     5.3870512552    22.9810880465
H       9.8286713929     3.6573146209    23.0644594452
H       7.7331012949     3.0526892187    21.7742161013
H       7.6749732109     4.3899164656    19.7554438672
H       9.0586842111     4.8003362052    25.0385074499
78
Step 10 | ATOMIC_POSITIONS (angstrom) | Cartesian Angstrom
Ni      1.2286497520     0.7093615510    11.2500000000
Ni      2.4572990100     2.8374462050    11.2500000000
Ni      3.6859482670     4.9655308580    11.2500000000
Ni      4.9145975240     7.0936155120    11.2500000000
Ni      3.6859497520     0.7093615510    11.2500000000
Ni      4.9145990100     2.8374462050    11.2500000000
Ni      6.1432482670     4.9655308580    11.2500000000
Ni      7.3718975240     7.0936155120    11.2500000000
Ni      6.1432497520     0.7093615510    11.2500000000
Ni      7.3718990100     2.8374462050    11.2500000000
Ni      8.6005482670     4.9655308580    11.2500000000
Ni      9.8291975240     7.0936155120    11.2500000000
Ni      8.6005497520     0.7093615510    11.2500000000
Ni      9.8291990100     2.8374462050    11.2500000000
Ni     11.0578482670     4.9655308580    11.2500000000
Ni     12.2864975240     7.0936155120    11.2500000000
Ni      4.9099156437     8.5053429943    13.3011714153
Ni     11.0531329444     2.1206495289    13.3008022987
Ni     12.2817169742     4.2489790338    13.3006009374
Ni     13.5101985337     6.3773433495    13.3009431249
Ni      7.3672568657     8.5047181049    13.3011773704
Ni      3.6813642393     2.1207834059    13.3007249916
Ni      4.9098915811     4.2493198243    13.3009122649
Ni      6.1382079689     6.3774560515    13.3011135672
Ni      9.8241033231     8.5046823230    13.3010832757
Ni      6.1383369811     2.1207818053    13.3007715317
Ni      7.3668809572     4.2490234566    13.3008058444
Ni      8.5953896190     6.3767159329    13.3009510356
Ni     12.2816608155     8.5051500050    13.3006064561
Ni      8.5958456854     2.1206091639    13.3010363913
Ni      9.8244550653     4.2487038258    13.3007275536
Ni     11.0528529681     6.3769409810    13.3006612510
Cu      2.4478273934     1.4024593494    15.3768195279
Cu      3.6763308064     3.5307008763    15.3768060769
Cu      4.9041378635     5.6597275327    15.3773446705
Cu      6.1330260753     7.7878909917    15.3784795762
Cu      4.9046987935     1.4026027494    15.3777978376
Cu      6.1325026874     3.5313494179    15.3777258642
Cu      7.3610720821     5.6598451508    15.3779275454
Cu      8.5906751573     7.7868955285    15.3785352684
Cu      7.3621786350     1.4037478132    15.3762149869
Cu      8.5904727219     3.5321453649    15.3780682333
Cu      9.8190628607     5.6596863340    15.3769316566
Cu     11.0487962789     7.7874997913    15.3777155251
Cu      9.8196454140     1.4041813301    15.3774701118
Cu     11.0479045226     3.5315147301    15.3771972946
Cu     12.2765483612     5.6595853029    15.3771297580
Cu     13.5054403737     7.7883030906    15.3772812510
Cu      1.2175920497     0.6862132877    17.5878981112
Cu      2.4498055478     2.8119207882    17.5783103291
Cu      3.6841600301     4.9439218155    17.5877629643
Cu      4.9001928435     7.0761835142    17.5678512031
Cu      3.6707273067     0.6963872773    17.5743104185
Cu      4.8978526088     2.8142257628    17.5959948697
Cu      6.1157065032     4.9407110197    17.4546063759
Cu      7.3556250410     7.0839605929    17.5299290354
Cu      6.1336878995     0.6990261302    17.5825335089
Cu      7.3527929072     2.8042378103    17.4692819727
Cu      8.6288805039     4.9445442771    17.4822974645
Cu      9.8400508717     7.1035151698    17.5021475918
Cu      8.5880718711     0.6848375113    17.5761527475
Cu      9.8312084690     2.7955746643    17.5026368322
Cu     11.0889088204     4.9472928927    17.4784632424
Cu     12.2860693925     7.0809687140    17.5797381297
O       7.4412746963     3.9812022758    21.7044523550
O       8.4348848098     4.9355164379    19.5050566564
O       8.5980369387     4.9575176807    24.2004616910
C       8.5765006446     4.8740083294    21.8296690231
C       9.3988977699     4.7528396999    20.5567792071
C       9.4191750977     4.6768867836    23.0702523157
H       8.1297648271     5.8807233096    21.8463469788
H       9.8514057681     3.7559573047    20.4481316099
H      10.1945133262     5.5073590964    20.4238774946
H      10.2665916451     5.3861525531    22.9862265664
H       9.8370909553     3.6512618229    23.0847853557
H       7.7261190457     3.0506675423    21.7898809713
H       7.6482651182     4.4126948218    19.7960124412
H       9.0618708455     4.8000858881    25.0409516443
78
Step 11 | ATOMIC_POSITIONS (angstrom) | Cartesian Angstrom
Ni      1.2286497520     0.7093615510    11.2500000000
Ni      2.4572990100     2.8374462050    11.2500000000
Ni      3.6859482670     4.9655308580    11.2500000000
Ni      4.9145975240     7.0936155120    11.2500000000
Ni      3.6859497520     0.7093615510    11.2500000000
Ni      4.9145990100     2.8374462050    11.2500000000
Ni      6.1432482670     4.9655308580    11.2500000000
Ni      7.3718975240     7.0936155120    11.2500000000
Ni      6.1432497520     0.7093615510    11.2500000000
Ni      7.3718990100     2.8374462050    11.2500000000
Ni      8.6005482670     4.9655308580    11.2500000000
Ni      9.8291975240     7.0936155120    11.2500000000
Ni      8.6005497520     0.7093615510    11.2500000000
Ni      9.8291990100     2.8374462050    11.2500000000
Ni     11.0578482670     4.9655308580    11.2500000000
Ni     12.2864975240     7.0936155120    11.2500000000
Ni      4.9099156437     8.5053429943    13.3011714153
Ni     11.0531329444     2.1206495289    13.3008022987
Ni     12.2817169742     4.2489790338    13.3006009374
Ni     13.5101985337     6.3773433495    13.3009431249
Ni      7.3672568657     8.5047181049    13.3011773704
Ni      3.6813642393     2.1207834059    13.3007249916
Ni      4.9098915811     4.2493198243    13.3009122649
Ni      6.1382079689     6.3774560515    13.3011135672
Ni      9.8241033231     8.5046823230    13.3010832757
Ni      6.1383369811     2.1207818053    13.3007715317
Ni      7.3668809572     4.2490234566    13.3008058444
Ni      8.5953896190     6.3767159329    13.3009510356
Ni     12.2816608155     8.5051500050    13.3006064561
Ni      8.5958456854     2.1206091639    13.3010363913
Ni      9.8244550653     4.2487038258    13.3007275536
Ni     11.0528529681     6.3769409810    13.3006612510
Cu      2.4478273934     1.4024593494    15.3768195279
Cu      3.6763308064     3.5307008763    15.3768060769
Cu      4.9041378635     5.6597275327    15.3773446705
Cu      6.1330260753     7.7878909917    15.3784795762
Cu      4.9046987935     1.4026027494    15.3777978376
Cu      6.1325026874     3.5313494179    15.3777258642
Cu      7.3610720821     5.6598451508    15.3779275454
Cu      8.5906751573     7.7868955285    15.3785352684
Cu      7.3621786350     1.4037478132    15.3762149869
Cu      8.5904727219     3.5321453649    15.3780682333
Cu      9.8190628607     5.6596863340    15.3769316566
Cu     11.0487962789     7.7874997913    15.3777155251
Cu      9.8196454140     1.4041813301    15.3774701118
Cu     11.0479045226     3.5315147301    15.3771972946
Cu     12.2765483612     5.6595853029    15.3771297580
Cu     13.5054403737     7.7883030906    15.3772812510
Cu      1.2177995474     0.6857999782    17.5900959483
Cu      2.4490573130     2.8139235456    17.5788538448
Cu      3.6858251476     4.9447850475    17.5908810493
Cu      4.9041272654     7.0750789990    17.5680237950
Cu      3.6721005357     0.6937080279    17.5738917986
Cu      4.9012350546     2.8163712759    17.5978409614
Cu      6.1184918235     4.9422673686    17.4549395642
Cu      7.3585413219     7.0840524326    17.5287238080
Cu      6.1348168886     0.7000922847    17.5853163207
Cu      7.3539479913     2.8056580047    17.4715563600
Cu      8.6261575845     4.9456618984    17.4964618816
Cu      9.8385405933     7.0998530875    17.5012322405
Cu      8.5893822687     0.6884273775    17.5765899385
Cu      9.8342556233     2.7967988642    17.5025414817
Cu     11.0855108554     4.9483687467    17.4791720223
Cu     12.2847532075     7.0801092837    17.5803787935
O       7.4397977141     3.9815378341    21.7124209404
O       8.4252719739     4.9265314718    19.5261838087
O       8.5950424681     4.9572926675    24.2074177460
C       8.5796698136     4.8686088034    21.8458476457
C       9.4021779008     4.7517128049    20.5695680880
C       9.4229987755     4.6740480084    23.0830545289
H       8.1261779223     5.8744472974    21.8644968492
H       9.8596688035     3.7521687659    20.4464188154
H      10.1823898342     5.5212355902    20.4279327661
H      10.2725222398     5.3836883279    22.9935422674
H       9.8414115909     3.6471226528    23.1019445845
H       7.7247644167     3.0531608884    21.8031084156
H       7.6249843281     4.4303067382    19.8250411015
H       9.0684221770     4.7987401654    25.0345591188
78
Step 12 | ATOMIC_POSITIONS (angstrom) | Cartesian Angstrom
Ni      1.2286497520     0.7093615510    11.2500000000
Ni      2.4572990100     2.8374462050    11.2500000000
Ni      3.6859482670     4.9655308580    11.2500000000
Ni      4.9145975240     7.0936155120    11.2500000000
Ni      3.6859497520     0.7093615510    11.2500000000
Ni      4.9145990100     2.8374462050    11.2500000000
Ni      6.1432482670     4.9655308580    11.2500000000
Ni      7.3718975240     7.0936155120    11.2500000000
Ni      6.1432497520     0.7093615510    11.2500000000
Ni      7.3718990100     2.8374462050    11.2500000000
Ni      8.6005482670     4.9655308580    11.2500000000
Ni      9.8291975240     7.0936155120    11.2500000000
Ni      8.6005497520     0.7093615510    11.2500000000
Ni      9.8291990100     2.8374462050    11.2500000000
Ni     11.0578482670     4.9655308580    11.2500000000
Ni     12.2864975240     7.0936155120    11.2500000000
Ni      4.9099156437     8.5053429943    13.3011714153
Ni     11.0531329444     2.1206495289    13.3008022987
Ni     12.2817169742     4.2489790338    13.3006009374
Ni     13.5101985337     6.3773433495    13.3009431249
Ni      7.3672568657     8.5047181049    13.3011773704
Ni      3.6813642393     2.1207834059    13.3007249916
Ni      4.9098915811     4.2493198243    13.3009122649
Ni      6.1382079689     6.3774560515    13.3011135672
Ni      9.8241033231     8.5046823230    13.3010832757
Ni      6.1383369811     2.1207818053    13.3007715317
Ni      7.3668809572     4.2490234566    13.3008058444
Ni      8.5953896190     6.3767159329    13.3009510356
Ni     12.2816608155     8.5051500050    13.3006064561
Ni      8.5958456854     2.1206091639    13.3010363913
Ni      9.8244550653     4.2487038258    13.3007275536
Ni     11.0528529681     6.3769409810    13.3006612510
Cu      2.4478273934     1.4024593494    15.3768195279
Cu      3.6763308064     3.5307008763    15.3768060769
Cu      4.9041378635     5.6597275327    15.3773446705
Cu      6.1330260753     7.7878909917    15.3784795762
Cu      4.9046987935     1.4026027494    15.3777978376
Cu      6.1325026874     3.5313494179    15.3777258642
Cu      7.3610720821     5.6598451508    15.3779275454
Cu      8.5906751573     7.7868955285    15.3785352684
Cu      7.3621786350     1.4037478132    15.3762149869
Cu      8.5904727219     3.5321453649    15.3780682333
Cu      9.8190628607     5.6596863340    15.3769316566
Cu     11.0487962789     7.7874997913    15.3777155251
Cu      9.8196454140     1.4041813301    15.3774701118
Cu     11.0479045226     3.5315147301    15.3771972946
Cu     12.2765483612     5.6595853029    15.3771297580
Cu     13.5054403737     7.7883030906    15.3772812510
Cu      1.2184035700     0.6854520883    17.5925364277
Cu      2.4490034075     2.8160697131    17.5791261968
Cu      3.6867368626     4.9458378391    17.5942616360
Cu      4.9080004111     7.0741270135    17.5682685973
Cu      3.6740860988     0.6913030290    17.5732082338
Cu      4.9048615501     2.8185974020    17.5993809446
Cu      6.1201336139     4.9439047192    17.4586190429
Cu      7.3610222501     7.0851897214    17.5282047998
Cu      6.1358418521     0.7001481706    17.5884559561
Cu      7.3547810464     2.8061804711    17.4771267899
Cu      8.6233537972     4.9472700060    17.5052183946
Cu      9.8374044897     7.0965203850    17.5019132385
Cu      8.5909960172     0.6919211052    17.5767271925
Cu      9.8376945328     2.7977774116    17.5040091645
Cu     11.0822711977     4.9493638727    17.4822581097
Cu     12.2834168413     7.0791400073    17.5807967361
O       7.4410942117     3.9843149191    21.7253329984
O       8.4136801659     4.9226009382    19.5480438606
O       8.5888719531     4.9578701640    24.2110967059
C       8.5845289244     4.8635693546    21.8592001480
C       9.4006381679     4.7480448759    20.5781688898
C       9.4249605188     4.6715473149    23.0970016734
H       8.1247559904     5.8646415060    21.8843353803
H       9.8707455491     3.7508818516    20.4492758780
H      10.1659405497     5.5320649859    20.4345847470
H      10.2771550713     5.3786693088    23.0040331001
H       9.8440514757     3.6445445842    23.1203269157
H       7.7254356044     3.0561245424    21.8176082548
H       7.6016036361     4.4475693221    19.8561343838
H       9.0808994808     4.7956463541    25.0335959995
78
Step 13 | ATOMIC_POSITIONS (angstrom) | Cartesian Angstrom
Ni      1.2286497520     0.7093615510    11.2500000000
Ni      2.4572990100     2.8374462050    11.2500000000
Ni      3.6859482670     4.9655308580    11.2500000000
Ni      4.9145975240     7.0936155120    11.2500000000
Ni      3.6859497520     0.7093615510    11.2500000000
Ni      4.9145990100     2.8374462050    11.2500000000
Ni      6.1432482670     4.9655308580    11.2500000000
Ni      7.3718975240     7.0936155120    11.2500000000
Ni      6.1432497520     0.7093615510    11.2500000000
Ni      7.3718990100     2.8374462050    11.2500000000
Ni      8.6005482670     4.9655308580    11.2500000000
Ni      9.8291975240     7.0936155120    11.2500000000
Ni      8.6005497520     0.7093615510    11.2500000000
Ni      9.8291990100     2.8374462050    11.2500000000
Ni     11.0578482670     4.9655308580    11.2500000000
Ni     12.2864975240     7.0936155120    11.2500000000
Ni      4.9099156437     8.5053429943    13.3011714153
Ni     11.0531329444     2.1206495289    13.3008022987
Ni     12.2817169742     4.2489790338    13.3006009374
Ni     13.5101985337     6.3773433495    13.3009431249
Ni      7.3672568657     8.5047181049    13.3011773704
Ni      3.6813642393     2.1207834059    13.3007249916
Ni      4.9098915811     4.2493198243    13.3009122649
Ni      6.1382079689     6.3774560515    13.3011135672
Ni      9.8241033231     8.5046823230    13.3010832757
Ni      6.1383369811     2.1207818053    13.3007715317
Ni      7.3668809572     4.2490234566    13.3008058444
Ni      8.5953896190     6.3767159329    13.3009510356
Ni     12.2816608155     8.5051500050    13.3006064561
Ni      8.5958456854     2.1206091639    13.3010363913
Ni      9.8244550653     4.2487038258    13.3007275536
Ni     11.0528529681     6.3769409810    13.3006612510
Cu      2.4478273934     1.4024593494    15.3768195279
Cu      3.6763308064     3.5307008763    15.3768060769
Cu      4.9041378635     5.6597275327    15.3773446705
Cu      6.1330260753     7.7878909917    15.3784795762
Cu      4.9046987935     1.4026027494    15.3777978376
Cu      6.1325026874     3.5313494179    15.3777258642
Cu      7.3610720821     5.6598451508    15.3779275454
Cu      8.5906751573     7.7868955285    15.3785352684
Cu      7.3621786350     1.4037478132    15.3762149869
Cu      8.5904727219     3.5321453649    15.3780682333
Cu      9.8190628607     5.6596863340    15.3769316566
Cu     11.0487962789     7.7874997913    15.3777155251
Cu      9.8196454140     1.4041813301    15.3774701118
Cu     11.0479045226     3.5315147301    15.3771972946
Cu     12.2765483612     5.6595853029    15.3771297580
Cu     13.5054403737     7.7883030906    15.3772812510
Cu      1.2196453150     0.6852958307    17.5951581763
Cu      2.4501120894     2.8181958055    17.5789380748
Cu      3.6866036806     4.9470847630    17.5978413830
Cu      4.9114274470     7.0735354890    17.5686217107
Cu      3.6768360404     0.6895849593    17.5721415465
Cu      4.9084927255     2.8207240470    17.6003377806
Cu      6.1206826814     4.9456412666    17.4670989928
Cu      7.3630160179     7.0872978954    17.5288498895
Cu      6.1367649210     0.6988274117    17.5919431560
Cu      7.3556055405     2.8060071869    17.4874612609
Cu      8.6197561305     4.9490281703    17.5097731284
Cu      9.8365750147     7.0933441015    17.5051294066
Cu      8.5929559591     0.6948931406    17.5763763124
Cu      9.8411588436     2.7989517256    17.5079629182
Cu     11.0788213656     4.9501468686    17.4889918705
Cu     12.2823261822     7.0781860034    17.5808360166
O       7.4448129847     3.9870002373    21.7454868459
O       8.3993875160     4.9234395058    19.5682248149
O       8.5865625568     4.9567207835    24.2246376250
C       8.5922481523     4.8578883327    21.8694940287
C       9.3931380242     4.7425276351    20.5830619400
C       9.4247919503     4.6689778904    23.1077686961
H       8.1258169753     5.8538292628    21.9055501292
H       9.8837173921     3.7531200568    20.4567252270
H      10.1448861685     5.5392156903    20.4441394097
H      10.2802676466     5.3710960298    23.0196707284
H       9.8438171547     3.6433533143    23.1409226969
H       7.7289286019     3.0608983643    21.8333446729
H       7.5800081547     4.4645186951    19.8872441943
H       9.0934312550     4.7929094483    25.0285306308
78
Step 14 | ATOMIC_POSITIONS (angstrom) | Cartesian Angstrom
Ni      1.2286497520     0.7093615510    11.2500000000
Ni      2.4572990100     2.8374462050    11.2500000000
Ni      3.6859482670     4.9655308580    11.2500000000
Ni      4.9145975240     7.0936155120    11.2500000000
Ni      3.6859497520     0.7093615510    11.2500000000
Ni      4.9145990100     2.8374462050    11.2500000000
Ni      6.1432482670     4.9655308580    11.2500000000
Ni      7.3718975240     7.0936155120    11.2500000000
Ni      6.1432497520     0.7093615510    11.2500000000
Ni      7.3718990100     2.8374462050    11.2500000000
Ni      8.6005482670     4.9655308580    11.2500000000
Ni      9.8291975240     7.0936155120    11.2500000000
Ni      8.6005497520     0.7093615510    11.2500000000
Ni      9.8291990100     2.8374462050    11.2500000000
Ni     11.0578482670     4.9655308580    11.2500000000
Ni     12.2864975240     7.0936155120    11.2500000000
Ni      4.9099156437     8.5053429943    13.3011714153
Ni     11.0531329444     2.1206495289    13.3008022987
Ni     12.2817169742     4.2489790338    13.3006009374
Ni     13.5101985337     6.3773433495    13.3009431249
Ni      7.3672568657     8.5047181049    13.3011773704
Ni      3.6813642393     2.1207834059    13.3007249916
Ni      4.9098915811     4.2493198243    13.3009122649
Ni      6.1382079689     6.3774560515    13.3011135672
Ni      9.8241033231     8.5046823230    13.3010832757
Ni      6.1383369811     2.1207818053    13.3007715317
Ni      7.3668809572     4.2490234566    13.3008058444
Ni      8.5953896190     6.3767159329    13.3009510356
Ni     12.2816608155     8.5051500050    13.3006064561
Ni      8.5958456854     2.1206091639    13.3010363913
Ni      9.8244550653     4.2487038258    13.3007275536
Ni     11.0528529681     6.3769409810    13.3006612510
Cu      2.4478273934     1.4024593494    15.3768195279
Cu      3.6763308064     3.5307008763    15.3768060769
Cu      4.9041378635     5.6597275327    15.3773446705
Cu      6.1330260753     7.7878909917    15.3784795762
Cu      4.9046987935     1.4026027494    15.3777978376
Cu      6.1325026874     3.5313494179    15.3777258642
Cu      7.3610720821     5.6598451508    15.3779275454
Cu      8.5906751573     7.7868955285    15.3785352684
Cu      7.3621786350     1.4037478132    15.3762149869
Cu      8.5904727219     3.5321453649    15.3780682333
Cu      9.8190628607     5.6596863340    15.3769316566
Cu     11.0487962789     7.7874997913    15.3777155251
Cu      9.8196454140     1.4041813301    15.3774701118
Cu     11.0479045226     3.5315147301    15.3771972946
Cu     12.2765483612     5.6595853029    15.3771297580
Cu     13.5054403737     7.7883030906    15.3772812510
Cu      1.2213141811     0.6856784918    17.5971161189
Cu      2.4525206561     2.8191236371    17.5784505462
Cu      3.6855586789     4.9480597022    17.6003565770
Cu      4.9123973727     7.0740072677    17.5689159020
Cu      3.6792063046     0.6901465953    17.5711406452
Cu      4.9101673413     2.8216112500    17.6005302395
Cu      6.1199481439     4.9466988586    17.4752861694
Cu      7.3636800474     7.0894181189    17.5299910657
Cu      6.1373254395     0.6968273373    17.5944848699
Cu      7.3564783970     2.8054739710    17.4970834270
Cu      8.6169266846     4.9495327334    17.5106291320
Cu      9.8368207246     7.0921684318    17.5089200866
Cu      8.5944370937     0.6954616996    17.5757334992
Cu      9.8429103028     2.8000583649    17.5119873760
Cu     11.0771926303     4.9503383712    17.4956280184
Cu     12.2826373590     7.0781246099    17.5804999630
O       7.4473692130     3.9881159851    21.7664527756
O       8.3851048276     4.9269527951    19.5777566641
O       8.5869386171     4.9556892913    24.2321757296
C       8.5966629954     4.8533542521    21.8758196467
C       9.3856114781     4.7422796998    20.5846082802
C       9.4243118565     4.6663013458    23.1150848308
H       8.1304691658     5.8474681156    21.9212825250
H       9.8925776558     3.7593451433    20.4656581879
H      10.1264762015     5.5393856908    20.4533030664
H      10.2808487663     5.3639733419    23.0347044966
H       9.8419423425     3.6426488166    23.1570770403
H       7.7327155039     3.0612342342    21.8461806528
H       7.5675682891     4.4763781115    19.9117870307
H       9.1054125443     4.7903503007    25.0349179533
