50
Original structure exported from QE input in Cartesian Angstrom
AG     -0.0000000000    -0.0000000000     5.7388763767
AG      1.4590029929     2.4931270076     5.7614721512
AG      2.9606587881     5.0209701757     5.7875923615
AG      4.4457632539     7.5932465644     5.7875923615
AG      5.8841117565    10.1576402154     5.7614721512
AG      2.8886128194     0.0169701519     5.7614721512
AG      4.3866991447     2.5326619321     5.7669656720
AG      5.8730634504     5.0543434861     5.7451886319
AG      7.3137215840     7.6024135108     5.7669656720
AG      8.7433314105    10.1576402154     5.7614721512
AG      5.8286171183     0.0535206350     5.7875923615
AG      7.3137215840     2.5590504029     5.7451886319
AG      8.7543797166     5.0543434861     5.7451886319
AG     10.1816799131     7.5932465644     5.7875923615
AG     11.6430378727    10.1682054503     5.8049468647
AG      8.7988260487     0.0535206350     5.7875923615
AG     10.2407440223     2.5326619321     5.7669656720
AG     11.6667843789     5.0209701757     5.7875923615
AG     13.1283539427     7.5796586824     5.8291652573
AG     14.6274431670    10.1761573852     5.8291652573
AG     11.7388303476     0.0169701519     5.7614721512
AG     13.1684401751     2.4931270076     5.7614721512
AG     14.6274431670     4.9990638495     5.8049468647
AG     16.1265323923     7.5796586824     5.8291652573
AG     17.6118484623    10.1682054503     5.8049468647
AG      1.4531005062     0.8389479682     8.0838346674
AG      2.9185781544     3.3635158696     8.0855370060
AG      4.3957594988     5.9072653216     8.0777634294
AG      5.8601204724     8.4584166165     8.0855370060
AG      7.3137215840    10.9898414396     8.0838346674
AG      4.3721792661     0.8458048899     8.0855370060
AG      5.8495372089     3.3772318825     8.0668710481
AG      7.3137215840     5.9132736131     8.0668710481
AG      8.7673226956     8.4584166165     8.0855370060
AG     10.2195759716    10.9900415635     8.0948258524
AG      7.3137215840     0.8532067338     8.0777634294
AG      8.7779059601     3.3772318825     8.0668710481
AG     10.2316836702     5.9072653216     8.0777634294
AG     11.6856574787     8.4507206711     8.0947756333
AG     13.1517331254    10.9900381794     8.0947756333
AG     10.2552639019     0.8458048899     8.0855370060
AG     11.7088650136     3.3635158696     8.0855370060
AG     13.1613675213     5.8947159016     8.0947756333
AG     14.6274431670     8.4451582500     8.0958265014
AG     16.1031532096    10.9900381794     8.0947756333
AG     13.1743426618     0.8389479682     8.0838346674
AG     14.6274431680     3.3553916261     8.0948258524
AG     16.0935188147     5.8947159016     8.0947756333
AG     17.5692288563     8.4507206711     8.0947756333
AG     19.0353103644    10.9900415635     8.0948258524
