124
Original structure exported from QE input in Cartesian Angstrom
NI      1.2254504230     0.7101865830     1.4556095020
NI      2.4444040200     2.8214761450     1.4556095020
NI      3.6633576180     4.9327657080     1.4556095020
NI      4.8823112150     7.0440552710     1.4556095020
NI      6.1012648120     9.1553448320     1.4556095020
NI      7.3202184090    11.2666343950     1.4556095020
NI      3.6633576170     0.7101865830     1.4556095020
NI      4.8823112140     2.8214761450     1.4556095020
NI      6.1012648110     4.9327657080     1.4556095020
NI      7.3202184090     7.0440552710     1.4556095020
NI      8.5391720050     9.1553448320     1.4556095020
NI      9.7581256030    11.2666343950     1.4556095020
NI      6.1012648120     0.7101865830     1.4556095020
NI      7.3202184090     2.8214761450     1.4556095020
NI      8.5391720060     4.9327657080     1.4556095020
NI      9.7581256040     7.0440552710     1.4556095020
NI     10.9770792000     9.1553448320     1.4556095020
NI     12.1960327980    11.2666343950     1.4556095020
NI      8.5391720070     0.7101865830     1.4556095020
NI      9.7581256040     2.8214761450     1.4556095020
NI     10.9770792010     4.9327657080     1.4556095020
NI     12.1960327990     7.0440552710     1.4556095020
NI     13.4149863960     9.1553448320     1.4556095020
NI     14.6339399930    11.2666343950     1.4556095020
NI     10.9770792000     0.7101865830     1.4556095020
NI     12.1960327970     2.8214761450     1.4556095020
NI     13.4149863950     4.9327657080     1.4556095020
NI     14.6339399920     7.0440552710     1.4556095020
NI     15.8528935890     9.1553448320     1.4556095020
NI     17.0718471870    11.2666343950     1.4556095020
NI     13.4149863960     0.7101865830     1.4556095020
NI     14.6339399920     2.8214761450     1.4556095020
NI     15.8528935900     4.9327657080     1.4556095020
NI     17.0718471870     7.0440552710     1.4556095020
NI     18.2908007840     9.1553448320     1.4556095020
NI     19.5097543820    11.2666343950     1.4556095020
NI     13.4525663990     7.7631490770     3.4056743360
NI     14.6463033940     9.8302498790     3.3968057210
NI     15.8390187620     7.7660843310     3.3930667280
NI     12.2434870220     9.8356376960     3.4420518020
NI     14.6440391240     5.6887553070     3.4233640300
NI     17.0350044900     9.8325475470     3.4115522190
NI     11.0250659890     7.7530242800     3.4563767430
NI     13.4410168810    11.9231289870     3.4379272510
NI     12.2335250200     5.6732888080     3.4344981000
NI     15.8424383610    11.9182589750     3.4272677810
NI     17.0462337360     5.6823333800     3.4318650050
NI     18.2410364960     7.7589888520     3.4252897690
NI      9.7910433700     9.8445964400     3.4771175290
NI     11.0140574660    11.9453306290     3.4634703510
NI     13.4255794600     3.5676456770     3.4610782110
NI     18.2551973540    11.9335482360     3.4505668420
NI     15.8502928450     3.5739202760     3.4551479910
NI     19.4640259460     9.8403238940     3.4598562680
NI      4.8462731340     5.6616406850     3.4504448370
NI      7.3259485580     1.3732804990     3.4591696490
NI      9.7871803480     5.6523842530     3.4712342860
NI      3.6523014510     3.5544523480     3.4719622090
NI      6.0679887240     7.7485073250     3.4763380840
NI      4.8995756720     1.3931863820     3.4773904510
NI      8.5540855450     7.7460963430     3.4790896550
NI      9.7446567460     1.3823828040     3.4690470070
NI     10.9886778360     3.5405586160     3.4754296960
NI      2.4574503460     1.4203433850     3.4907898060
NI      7.3109936610     9.8462445860     3.4873177520
NI     12.1819577620     1.4111890120     3.4814232110
NI      6.0947164590     3.5246040900     3.4808125610
NI      7.3111984890     5.6455702870     3.4863836360
NI      8.5429000150     3.5158333670     3.4888338070
NI      8.5499848070    11.9593362720     3.4919222120
NI     14.6300489010     1.4299106000     3.4971465700
NI     20.7017435800    11.9558261770     3.4793328830
AG     -0.0950228730    -0.0259393800     5.7914303010
AG      5.7774780830     5.0423905760     5.7733809810
AG      7.2074335220     2.5473674860     5.7743795920
AG      8.6559142870     5.0565682090     5.7688086250
AG      1.3528365770     2.4708869210     5.7790080500
AG      5.8061115690    10.1631289910     5.8197097570
AG      2.7791577630    -0.0223171150     5.8028375500
AG      8.6473892920    10.1471251040     5.8460437360
AG     11.6348816670     0.0171899030     5.7988289450
AG     13.0655904430     2.4904881990     5.7889662680
AG      4.2719318670     2.5020808880     5.7935688910
AG      7.2365963910     7.6156808720     5.8203036010
AG     10.1318215640     2.5376742010     5.7876458140
AG      2.8520132180     4.9942109940     5.8204435030
AG      4.3544601960     7.5769721610     5.8186496970
AG      5.7120140020     0.0288023920     5.8150731100
AG     10.0618613140     7.6153569370     5.8309781770
AG      8.6838879580     0.0438399290     5.8151373390
AG     11.5520088770     5.0313836250     5.7936828780
AG     11.5091318570    10.1662915940     5.8434073470
AG     14.5089076490     4.9880784330     5.8284608580
AG     17.5085149510    10.1506142890     5.8398512490
AG     12.9963813020     7.5747085430     5.8434047610
AG     14.4962368630    10.1517039230     5.8523630040
AG     16.0075532330     7.5547064380     5.8574514630
AG      5.7413209100     3.3626623440     8.0868348700
AG      7.1983122330     5.8848211220     8.0990676460
AG      8.6682574730     3.3702425930     8.0907346990
AG      4.2871026100     5.8881934700     8.1061841660
AG      7.2052050540     0.8416309300     8.1024877980
AG     10.1374794270     5.8823410130     8.1036844990
AG      1.3494676740     0.8491207680     8.1070237070
AG      7.1407884110    11.0238883280     8.1717059140
AG     13.0514008850     0.8554906240     8.1179078830
AG      2.8150086660     3.3492782290     8.1168573890
AG      5.7324238440     8.4406497470     8.1125605190
AG      4.2793745600     0.8466964170     8.1197502350
AG      8.6627979540     8.3632136880     8.1824536780
AG     10.1378275660     0.8444747830     8.1077793220
AG     11.5978284360     3.3650102960     8.0990186480
AG     11.5999210740     8.4289844640     8.1191663160
AG     13.0657566620    10.9731909710     8.1297257510
AG     13.0565500140     5.8834603090     8.1142676260
AG     15.9892800540    10.9748422620     8.1108941680
AG     15.9888609390     5.8761637030     8.1224266710
AG     17.4564289820     8.4308734460     8.1199766420
AG     10.1846653530    11.0166408490     8.1814851440
AG     14.5247222020     3.3501818780     8.1183721060
AG     18.9000755240    10.9856376320     8.1328503540
AG     14.5240500840     8.4236093850     8.1198134390
O      11.5910729130     6.7733622290     9.6925476820
H      11.5945491540     6.7801029380    10.6651855410
