124
Latest structure exported from QE output in Cartesian Angstrom
NI      1.2254504230     0.7101865830     1.4556095020
NI      2.4444040200     2.8214761450     1.4556095020
NI      3.6633576180     4.9327657080     1.4556095020
NI      4.8823112150     7.0440552710     1.4556095020
NI      6.1012648120     9.1553448320     1.4556095020
NI      7.3202184090    11.2666343950     1.4556095020
NI      3.6633576170     0.7101865830     1.4556095020
NI      4.8823112140     2.8214761450     1.4556095020
NI      6.1012648110     4.9327657080     1.4556095020
NI      7.3202184090     7.0440552710     1.4556095020
NI      8.5391720050     9.1553448320     1.4556095020
NI      9.7581256030    11.2666343950     1.4556095020
NI      6.1012648120     0.7101865830     1.4556095020
NI      7.3202184090     2.8214761450     1.4556095020
NI      8.5391720060     4.9327657080     1.4556095020
NI      9.7581256040     7.0440552710     1.4556095020
NI     10.9770792000     9.1553448320     1.4556095020
NI     12.1960327980    11.2666343950     1.4556095020
NI      8.5391720070     0.7101865830     1.4556095020
NI      9.7581256040     2.8214761450     1.4556095020
NI     10.9770792010     4.9327657080     1.4556095020
NI     12.1960327990     7.0440552710     1.4556095020
NI     13.4149863960     9.1553448320     1.4556095020
NI     14.6339399930    11.2666343950     1.4556095020
NI     10.9770792000     0.7101865830     1.4556095020
NI     12.1960327970     2.8214761450     1.4556095020
NI     13.4149863950     4.9327657080     1.4556095020
NI     14.6339399920     7.0440552710     1.4556095020
NI     15.8528935890     9.1553448320     1.4556095020
NI     17.0718471870    11.2666343950     1.4556095020
NI     13.4149863960     0.7101865830     1.4556095020
NI     14.6339399920     2.8214761450     1.4556095020
NI     15.8528935900     4.9327657080     1.4556095020
NI     17.0718471870     7.0440552710     1.4556095020
NI     18.2908007840     9.1553448320     1.4556095020
NI     19.5097543820    11.2666343950     1.4556095020
NI     13.4500948647     7.7634846947     3.4206067920
NI     14.6472871883     9.8304104161     3.3967355496
NI     15.8388121092     7.7673912922     3.3909246365
NI     12.2453079468     9.8376363721     3.4355925325
NI     14.6458194754     5.6881820364     3.4295263650
NI     17.0346679309     9.8330280187     3.4127474907
NI     11.0246779535     7.7539308681     3.4522839754
NI     13.4435272846    11.9242477936     3.4373361246
NI     12.2312107401     5.6727097315     3.4450363457
NI     15.8431369853    11.9186063856     3.4284338105
NI     17.0467222631     5.6839036904     3.4294563035
NI     18.2417348065     7.7602523640     3.4276668898
NI      9.7976114873     9.8421166103     3.4699287152
NI     11.0165615170    11.9413869291     3.4669293742
NI     13.4246961174     3.5701202167     3.4621389047
NI     18.2545820987    11.9349502519     3.4512260651
NI     15.8485207631     3.5782058060     3.4587534971
NI     19.4626684780     9.8407539754     3.4487688394
NI      4.8477819253     5.6623779589     3.4511105924
NI      7.3264951827     1.3744934349     3.4581245223
NI      9.7877113555     5.6518157687     3.4676790365
NI      3.6540310178     3.5548987628     3.4731360415
NI      6.0672403108     7.7483039675     3.4701685132
NI      4.8999364424     1.3971791487     3.4771971616
NI      8.5577100223     7.7471175492     3.4827576359
NI      9.7455089938     1.3846536379     3.4700939599
NI     10.9915857403     3.5435251515     3.4772217360
NI      2.4553853652     1.4250036744     3.4836517376
NI      7.3076316250     9.8450929436     3.4853422289
NI     12.1816386317     1.4128911478     3.4817095445
NI      6.0939992790     3.5252587751     3.4798701483
NI      7.3145732655     5.6430135994     3.4942414875
NI      8.5438705448     3.5207808059     3.4980941401
NI      8.5516668455    11.9600467914     3.4939007817
NI     14.6309447692     1.4349015167     3.4880019986
NI     20.7020447402    11.9549100559     3.4799957263
AG     -0.0963674751    -0.0079699604     5.7723109670
AG      5.7819516652     5.0355029208     5.7719959225
AG      7.2087942682     2.5551594697     5.7679280538
AG      8.6808249676     5.0683313430     5.7971942461
AG      1.3477055156     2.4832918456     5.7810951596
AG      5.7899465022    10.1497316923     5.8037325531
AG      2.7884274541    -0.0070184364     5.7804588671
AG      8.6546267298    10.1409652502     5.7912417333
AG     11.6322427771     0.0192547808     5.8011489399
AG     13.0588894687     2.4986433830     5.7914053746
AG      4.2749430627     2.5078228079     5.8004419270
AG      7.2329758298     7.5902914324     5.8000134037
AG     10.1323630052     2.5470552992     5.7853206656
AG      2.8401517972     4.9924363215     5.8151154486
AG      4.3478210350     7.5738326054     5.8266228419
AG      5.7047610540     0.0285863398     5.8103666263
AG     10.1052355223     7.5748486679     5.8521750280
AG      8.6804799665     0.0494233886     5.8144466471
AG     11.5540695879     5.0517437957     5.8411219899
AG     11.5344785415    10.1165301976     5.8550535998
AG     14.4699423384     5.0120659566     5.8565746474
AG     17.4967537317    10.1543753877     5.8447657505
AG     12.9785477863     7.5552326259     5.8918332482
AG     14.4922964798    10.1517546421     5.8542538860
AG     15.9961932661     7.5521307319     5.8552613237
AG      5.7376498411     3.3627315688     8.0943034901
AG      7.1762799474     5.9072926970     8.1048730217
AG      8.6537124827     3.3416850790     8.0981100176
AG      4.2873028960     5.8870906742     8.1005564405
AG      7.1986218676     0.8443091484     8.0981775384
AG     10.0343226982     5.8509353930     8.1670513437
AG      1.3523466014     0.8288904193     8.1087688751
AG      7.2043585611    10.9853134137     8.1238581856
AG     13.0711981610     0.8224206151     8.1154322947
AG      2.8132834799     3.3448153161     8.1169894093
AG      5.7477387457     8.4513512136     8.1231116507
AG      4.2637386349     0.8304108773     8.1187116694
AG      8.6406087980     8.4661689762     8.1095534671
AG     10.1408256490     0.8346556152     8.1091731668
AG     11.6013802613     3.3346913485     8.0897642734
AG     11.5762394492     8.5562926863     8.1951058530
AG     13.0594524432    11.0064682671     8.1332984899
AG     13.1440685448     5.8325936063     8.1875349941
AG     15.9941879367    10.9813538664     8.1155004918
AG     16.0160053446     5.8790982600     8.1285488484
AG     17.4656143451     8.4352731068     8.1186696793
AG     10.0962718538    11.0061582738     8.1360372052
AG     14.5371702820     3.3191304541     8.1255031917
AG     18.9283599494    10.9825653635     8.1273024076
AG     14.5386829952     8.4416872410     8.1042759498
O      11.5874856648     6.7530009764     9.6299226949
H      11.5895702463     6.7695569307    10.6016642714
