124
Step 1 | ATOMIC_POSITIONS (angstrom) | Cartesian Angstrom
NI      1.2254504230     0.7101865830     1.4556095020
NI      2.4444040200     2.8214761450     1.4556095020
NI      3.6633576180     4.9327657080     1.4556095020
NI      4.8823112150     7.0440552710     1.4556095020
NI      6.1012648120     9.1553448320     1.4556095020
NI      7.3202184090    11.2666343950     1.4556095020
NI      3.6633576170     0.7101865830     1.4556095020
NI      4.8823112140     2.8214761450     1.4556095020
NI      6.1012648110     4.9327657080     1.4556095020
NI      7.3202184090     7.0440552710     1.4556095020
NI      8.5391720050     9.1553448320     1.4556095020
NI      9.7581256030    11.2666343950     1.4556095020
NI      6.1012648120     0.7101865830     1.4556095020
NI      7.3202184090     2.8214761450     1.4556095020
NI      8.5391720060     4.9327657080     1.4556095020
NI      9.7581256040     7.0440552710     1.4556095020
NI     10.9770792000     9.1553448320     1.4556095020
NI     12.1960327980    11.2666343950     1.4556095020
NI      8.5391720070     0.7101865830     1.4556095020
NI      9.7581256040     2.8214761450     1.4556095020
NI     10.9770792010     4.9327657080     1.4556095020
NI     12.1960327990     7.0440552710     1.4556095020
NI     13.4149863960     9.1553448320     1.4556095020
NI     14.6339399930    11.2666343950     1.4556095020
NI     10.9770792000     0.7101865830     1.4556095020
NI     12.1960327970     2.8214761450     1.4556095020
NI     13.4149863950     4.9327657080     1.4556095020
NI     14.6339399920     7.0440552710     1.4556095020
NI     15.8528935890     9.1553448320     1.4556095020
NI     17.0718471870    11.2666343950     1.4556095020
NI     13.4149863960     0.7101865830     1.4556095020
NI     14.6339399920     2.8214761450     1.4556095020
NI     15.8528935900     4.9327657080     1.4556095020
NI     17.0718471870     7.0440552710     1.4556095020
NI     18.2908007840     9.1553448320     1.4556095020
NI     19.5097543820    11.2666343950     1.4556095020
NI     13.4526645527     7.7633794350     3.4039858098
NI     14.6464368792     9.8302535154     3.3967506192
NI     15.8389606119     7.7661582832     3.3931490407
NI     12.2436254218     9.8354668022     3.4413060875
NI     14.6441656436     5.6888407020     3.4229543411
NI     17.0347499921     9.8325173974     3.4115434839
NI     11.0253739385     7.7530291026     3.4554467400
NI     13.4412214867    11.9231310252     3.4379918414
NI     12.2336614936     5.6734605214     3.4337660997
NI     15.8424084645    11.9181286952     3.4274560705
NI     17.0461394348     5.6822713986     3.4319444736
NI     18.2410446690     7.7591351021     3.4250691650
NI      9.7908499559     9.8444597080     3.4778815853
NI     11.0139336970    11.9449122665     3.4647112089
NI     13.4253566416     3.5677585775     3.4610734237
NI     18.2550339911    11.9335906085     3.4504165181
NI     15.8500346627     3.5740596821     3.4556294577
NI     19.4640712375     9.8402657263     3.4593722422
NI      4.8463190564     5.6616085926     3.4503004845
NI      7.3258639768     1.3732702311     3.4591242929
NI      9.7874741369     5.6524013586     3.4703366426
NI      3.6526457429     3.5544146931     3.4719159806
NI      6.0680012115     7.7484466557     3.4764017017
NI      4.8998259052     1.3937082310     3.4771548456
NI      8.5540374619     7.7462354652     3.4796476696
NI      9.7447997523     1.3825190075     3.4692516028
NI     10.9888926966     3.5405585722     3.4754234698
NI      2.4572424117     1.4206563783     3.4902310524
NI      7.3110359038     9.8462914677     3.4881132483
NI     12.1818226101     1.4114069422     3.4813618344
NI      6.0945254304     3.5246243660     3.4811252584
NI      7.3112163136     5.6452309662     3.4865955352
NI      8.5428256322     3.5161489245     3.4893485078
NI      8.5500066705    11.9593874878     3.4925356642
NI     14.6302271948     1.4302780259     3.4966006516
NI     20.7019108655    11.9556367888     3.4798799594
AG     -0.0951593895    -0.0241928515     5.7899680287
AG      5.7775582013     5.0421620164     5.7732853800
AG      7.2072988873     2.5475169793     5.7739980819
AG      8.6581653137     5.0579465402     5.7711856045
AG      1.3528065625     2.4711940617     5.7789306254
AG      5.8044551888    10.1620744508     5.8184158582
AG      2.7795266775    -0.0205782918     5.8010778310
AG      8.6477534804    10.1464355973     5.8472758063
AG     11.6347828504     0.0172021110     5.7990460479
AG     13.0652524443     2.4908128268     5.7892475143
AG      4.2719545610     2.5021782342     5.7939302127
AG      7.2355808856     7.6146005046     5.8190829495
AG     10.1320787504     2.5380361319     5.7876445997
AG      2.8517799811     4.9941638805     5.8201844680
AG      4.3541676366     7.5768194485     5.8189551372
AG      5.7118457368     0.0289116331     5.8150349777
AG     10.0646403983     7.6136234836     5.8301403897
AG      8.6838475390     0.0438693587     5.8151002494
AG     11.5518752674     5.0322684898     5.7947463151
AG     11.5109542364    10.1623327551     5.8446053366
AG     14.5065295701     4.9894783615     5.8307684613
AG     17.5083141228    10.1507106484     5.8399505580
AG     12.9955566999     7.5739904690     5.8441918535
AG     14.4960414241    10.1513340208     5.8527042960
AG     16.0069280182     7.5547793934     5.8575622852
AG      5.7412883919     3.3627996258     8.0870923166
AG      7.1980817009     5.8849580854     8.0991589780
AG      8.6683237710     3.3698171591     8.0908825737
AG      4.2869484934     5.8881387132     8.1058522462
AG      7.2051996487     0.8417553355     8.1023366522
AG     10.1294586527     5.8775813696     8.1045242937
AG      1.3495314845     0.8474361803     8.1077855145
AG      7.1469106012    11.0203818755     8.1700288114
AG     13.0515308805     0.8553858479     8.1180491511
AG      2.8148469617     3.3494925518     8.1167132351
AG      5.7340736213     8.4414241802     8.1137410825
AG      4.2794051743     0.8466433768     8.1197917085
AG      8.6610258939     8.3710769791     8.1793553643
AG     10.1377923137     0.8445522093     8.1078645217
AG     11.5980967568     3.3631908839     8.0979543333
AG     11.5982368192     8.4412335256     8.1199209553
AG     13.0659515762    10.9733777788     8.1297893333
AG     13.0646817732     5.8784070728     8.1150675223
AG     15.9892118682    10.9748148476     8.1110729680
AG     15.9888657287     5.8764014143     8.1225646118
AG     17.4562414242     8.4308053810     8.1199271605
AG     10.1783457823    11.0134297752     8.1799400563
AG     14.5244596632     3.3500892352     8.1185639353
AG     18.9002225092    10.9856883164     8.1327613057
AG     14.5256472074     8.4245427444     8.1184456284
O      11.5909046786     6.7714529950     9.6937742074
H      11.5945064949     6.7801790261    10.6652750168
124
Step 2 | ATOMIC_POSITIONS (angstrom) | Cartesian Angstrom
NI      1.2254504230     0.7101865830     1.4556095020
NI      2.4444040200     2.8214761450     1.4556095020
NI      3.6633576180     4.9327657080     1.4556095020
NI      4.8823112150     7.0440552710     1.4556095020
NI      6.1012648120     9.1553448320     1.4556095020
NI      7.3202184090    11.2666343950     1.4556095020
NI      3.6633576170     0.7101865830     1.4556095020
NI      4.8823112140     2.8214761450     1.4556095020
NI      6.1012648110     4.9327657080     1.4556095020
NI      7.3202184090     7.0440552710     1.4556095020
NI      8.5391720050     9.1553448320     1.4556095020
NI      9.7581256030    11.2666343950     1.4556095020
NI      6.1012648120     0.7101865830     1.4556095020
NI      7.3202184090     2.8214761450     1.4556095020
NI      8.5391720060     4.9327657080     1.4556095020
NI      9.7581256040     7.0440552710     1.4556095020
NI     10.9770792000     9.1553448320     1.4556095020
NI     12.1960327980    11.2666343950     1.4556095020
NI      8.5391720070     0.7101865830     1.4556095020
NI      9.7581256040     2.8214761450     1.4556095020
NI     10.9770792010     4.9327657080     1.4556095020
NI     12.1960327990     7.0440552710     1.4556095020
NI     13.4149863960     9.1553448320     1.4556095020
NI     14.6339399930    11.2666343950     1.4556095020
NI     10.9770792000     0.7101865830     1.4556095020
NI     12.1960327970     2.8214761450     1.4556095020
NI     13.4149863950     4.9327657080     1.4556095020
NI     14.6339399920     7.0440552710     1.4556095020
NI     15.8528935890     9.1553448320     1.4556095020
NI     17.0718471870    11.2666343950     1.4556095020
NI     13.4149863960     0.7101865830     1.4556095020
NI     14.6339399920     2.8214761450     1.4556095020
NI     15.8528935900     4.9327657080     1.4556095020
NI     17.0718471870     7.0440552710     1.4556095020
NI     18.2908007840     9.1553448320     1.4556095020
NI     19.5097543820    11.2666343950     1.4556095020
NI     13.4527213104     7.7635787850     3.4022977958
NI     14.6465765408     9.8302952329     3.3967378769
NI     15.8389242844     7.7662048212     3.3932550971
NI     12.2437283614     9.8353765667     3.4405002299
NI     14.6443182708     5.6888150047     3.4227037966
NI     17.0344861369     9.8324932840     3.4115628179
NI     11.0256883895     7.7530317642     3.4542773060
NI     13.4414210676    11.9231663274     3.4380652110
NI     12.2337802663     5.6735696851     3.4330271154
NI     15.8423714821    11.9180444453     3.4276683934
NI     17.0460380382     5.6821928471     3.4320089352
NI     18.2410652739     7.7592504788     3.4248488193
NI      9.7906437333     9.8442978851     3.4787999695
NI     11.0138929478    11.9444060213     3.4660661001
NI     13.4251018110     3.5679144075     3.4610723256
NI     18.2548554946    11.9336844281     3.4502710428
NI     15.8497405681     3.5742907686     3.4561599427
NI     19.4640692631     9.8401980687     3.4586998980
NI      4.8463883706     5.6615551139     3.4501262273
NI      7.3258163484     1.3733048565     3.4590430537
NI      9.7877269128     5.6523484372     3.4693185144
NI      3.6530226387     3.5543798748     3.4718568100
NI      6.0679997852     7.7483295529     3.4763826278
NI      4.9000949463     1.3942927771     3.4768738483
NI      8.5540170768     7.7463402809     3.4802534250
NI      9.7449138425     1.3827301987     3.4694759356
NI     10.9890991093     3.5405958916     3.4753880080
NI      2.4570411510     1.4210691664     3.4895157335
NI      7.3111264960     9.8463282829     3.4890669398
NI     12.1816727294     1.4116728462     3.4812940244
NI      6.0943560731     3.5246653241     3.4814531328
NI      7.3113210282     5.6447798627     3.4868911923
NI      8.5427536226     3.5165552454     3.4899760686
NI      8.5500606667    11.9594293286     3.4932350722
NI     14.6303967290     1.4307629198     3.4958990850
NI     20.7020587847    11.9554511452     3.4804795756
AG     -0.0953536023    -0.0222055317     5.7883576264
AG      5.7777078293     5.0418621217     5.7731768749
AG      7.2071915476     2.5477603105     5.7735654413
AG      8.6607341349     5.0595470858     5.7737558053
AG      1.3527303826     2.4716445647     5.7789429125
AG      5.8025665465    10.1609057657     5.8170357359
AG      2.7800343047    -0.0186515922     5.7991436143
AG      8.6481890889    10.1456365312     5.8483476677
AG     11.6346721875     0.0172119134     5.7993162840
AG     13.0648514499     2.4912301167     5.7895280308
AG      4.2719983739     2.5023345624     5.7943679511
AG      7.2344907306     7.6132388771     5.8176995700
AG     10.1323412239     2.5384663452     5.7876028153
AG      2.8514473693     4.9941030411     5.8198840051
AG      4.3537839878     7.5766247951     5.8193809170
AG      5.7115989716     0.0289905651     5.8150000805
AG     10.0679053188     7.6114108306     5.8294265886
AG      8.6837906604     0.0439372270     5.8150808766
AG     11.5517722313     5.0334228581     5.7961086070
AG     11.5131107714    10.1578452255     5.8457979358
AG     14.5037507386     4.9911713931     5.8331305272
AG     17.5080227788    10.1508269897     5.8400807181
AG     12.9945358872     7.5730328873     5.8452441524
AG     14.4958278303    10.1509205162     5.8530261853
AG     16.0061912894     7.5548396872     5.8576306916
AG      5.7412602721     3.3629638662     8.0874310028
AG      7.1976795975     5.8852933178     8.0993182744
AG      8.6682654148     3.3690671006     8.0911170744
AG      4.2867743228     5.8881028597     8.1054723629
AG      7.2051891498     0.8419135175     8.1021681156
AG     10.1205886767     5.8726027705     8.1061220764
AG      1.3496182292     0.8454569022     8.1086479862
AG      7.1540843958    11.0162656177     8.1679233708
AG     13.0518291913     0.8549999670     8.1182225409
AG      2.8146122868     3.3497132941     8.1165644525
AG      5.7359700328     8.4423375078     8.1151291774
AG      4.2793296034     0.8463865842     8.1198466036
AG      8.6589713090     8.3803945598     8.1755271904
AG     10.1377249448     0.8445982039     8.1079931826
AG     11.5984016083     3.3610506679     8.0967439070
AG     11.5962520930     8.4546045262     8.1216374948
AG     13.0661145402    10.9738689539     8.1299332564
AG     13.0734933932     5.8729991276     8.1166846852
AG     15.9891609981    10.9748376334     8.1113228667
AG     15.9891158056     5.8766880898     8.1228013928
AG     17.4561203140     8.4307276711     8.1198936638
AG     10.1707617487    11.0098814108     8.1780316406
AG     14.5243123323     3.3496974842     8.1188762855
AG     18.9006247651    10.9857527059     8.1326578044
AG     14.5274470064     8.4256243637     8.1168738752
O      11.5907166196     6.7693057567     9.6924423132
H      11.5944453108     6.7802386170    10.6665720674
