102
Latest structure exported from QE output in Cartesian Angstrom
NI      0.0000000000     0.0000000000     1.1900000730
NI      1.2286496050     2.1280835410     1.1900000730
NI      2.4572992100     4.2561670810     1.1900000730
NI      3.6859488150     6.3842506220     1.1900000730
NI      4.9145984200     8.5123341620     1.1900000730
NI      2.4572992100     0.0000000000     1.1900000730
NI      3.6859488150     2.1280835410     1.1900000730
NI      4.9145984200     4.2561670810     1.1900000730
NI      6.1432480250     6.3842506220     1.1900000730
NI      7.3718976300     8.5123341620     1.1900000730
NI      4.9145984200     0.0000000000     1.1900000730
NI      6.1432480250     2.1280835410     1.1900000730
NI      7.3718976300     4.2561670810     1.1900000730
NI      8.6005472350     6.3842506220     1.1900000730
NI      9.8291968400     8.5123341620     1.1900000730
NI      7.3718976300     0.0000000000     1.1900000730
NI      8.6005472350     2.1280835410     1.1900000730
NI      9.8291968400     4.2561670810     1.1900000730
NI     11.0578464450     6.3842506220     1.1900000730
NI     12.2864960500     8.5123341620     1.1900000730
NI      9.8291968400     0.0000000000     1.1900000730
NI     11.0578464450     2.1280835410     1.1900000730
NI     12.2864960500     4.2561670810     1.1900000730
NI     13.5151456550     6.3842506220     1.1900000730
NI     14.7437952600     8.5123341620     1.1900000730
NI      1.2257566724     0.7163926029     3.1981367832
NI      2.4538842191     2.8421695138     3.1972715778
NI      3.6849596209     4.9747500579     3.1979754218
NI      4.9169063996     7.1040361712     3.1951385703
NI      6.1401366705     9.2357658864     3.1984096825
NI      3.6843928133     0.7163712176     3.2081819133
NI      4.9146566514     2.8373161641     3.2026212313
NI      6.1510451319     4.9738470347     3.2043810257
NI      7.3706024870     7.1019797485     3.2018898713
NI      8.6013775383     9.2334059468     3.1977473610
NI      6.1403212008     0.7201069346     3.2095785820
NI      7.3718324609     2.8420145548     3.1990131358
NI      8.5934800863     4.9746526277     3.2065387646
NI      9.8274537287     7.1041949438     3.1999649164
NI     11.0564012111     9.2319445728     3.2014356136
NI      8.6005124330     0.7205389987     3.2075248218
NI      9.8247845248     2.8380922442     3.2011321259
NI     11.0542511040     4.9730235784     3.1981292634
NI     12.2853738574     7.1040792310     3.1960599589
NI     13.5150974312     9.2311792020     3.2024262034
NI     11.0544233010     0.7166417236     3.2068935290
NI     12.2862849085     2.8417336679     3.1985455032
NI     13.5129206117     4.9754444020     3.1999586948
NI     14.7441983190     7.1038555793     3.1983259596
NI     15.9724594765     9.2311043773     3.2004605377
NI      2.4507537432     1.4348640799     5.2106924925
NI      3.6755482410     3.5625671189     5.1962531067
NI      4.9173505490     5.6919041359     5.1922333100
NI      6.1431135290     7.8190178046     5.2081007167
NI      7.3682914494     9.9442963721     5.2131785613
NI      4.9334803994     1.4468261240     5.2577732539
NI      6.1472432384     3.5607285145     5.2073198524
NI      7.3695033683     5.6594470378     5.2397730225
NI      8.5967135861     7.8168628313     5.2123416964
NI      9.8244080024     9.9510080391     5.2134685262
NI      7.3707639429     1.4456407577     5.2292217794
NI      8.5897899522     3.5614749949     5.2098670349
NI      9.8227715801     5.6915827108     5.2006231914
NI     11.0522647327     7.8182338356     5.2113269221
NI     12.2811613923     9.9474468304     5.2061170872
NI      9.8054231019     1.4476184412     5.2548135378
NI     11.0570431551     3.5624716219     5.2018772156
NI     12.2819187218     5.6956920121     5.2102600005
NI     13.5134724836     7.8218070057     5.2132072860
NI     14.7448702207     9.9483052901     5.2059883193
NI     12.2811311156     1.4348630859     5.2109433946
NI     13.5114279820     3.5611781646     5.2058245005
NI     14.7416696316     5.6952315153     5.2121188054
NI     15.9748245644     7.8190906498     5.2085272961
NI     17.2007545576     9.9531575933     5.2115966417
NI      0.0050896990     0.0184261285     7.2215663632
NI      1.2262271251     2.1504830237     7.2387941505
NI      2.4426691257     4.2816797273     7.2176251844
NI      3.6812964915     6.4140428409     7.2251487439
NI      4.9183131027     8.5310705145     7.2309710577
NI      2.4474468362     0.0194283919     7.2200088007
NI      3.6557292735     2.1527705554     7.2136697986
NI      4.8689701582     4.2959326254     7.1881729778
NI      6.1306119080     6.4091511869     7.2107558313
NI      7.3686377347     8.5299812376     7.2324918259
NI      4.9018221267     0.0075105749     7.2177593676
NI      6.0756238051     2.1215216187     7.3239887055
NI      7.3691867740     4.3355524377     7.2757912066
NI      8.6042428626     6.4074089731     7.2172783428
NI      9.8206855840     8.5321903348     7.2349864878
NI      7.3693020728    -0.0246567354     7.1998922086
NI      8.6799527929     2.1192270399     7.3271663634
NI      9.8630468838     4.2991564591     7.1963329798
NI     11.0567734169     6.4141723206     7.2299841971
NI     12.2807100864     8.5240528515     7.2271045511
NI      9.8414315732    -0.0009127968     7.2200798494
NI     11.0921720806     2.1542507825     7.2196503024
NI     12.2934505668     4.2834790430     7.2188285962
NI     13.5114395971     6.4107961710     7.2189662477
NI     14.7460300911     8.5235794327     7.2241612922
O       7.3685656609     2.8868854519     8.5817096526
H       7.3840953520     3.1899595108     9.5149836594
