102
Step 1 | ATOMIC_POSITIONS (angstrom) | Cartesian Angstrom
NI      0.0000000000     0.0000000000     1.1900000730
NI      1.2286496050     2.1280835410     1.1900000730
NI      2.4572992100     4.2561670810     1.1900000730
NI      3.6859488150     6.3842506220     1.1900000730
NI      4.9145984200     8.5123341620     1.1900000730
NI      2.4572992100     0.0000000000     1.1900000730
NI      3.6859488150     2.1280835410     1.1900000730
NI      4.9145984200     4.2561670810     1.1900000730
NI      6.1432480250     6.3842506220     1.1900000730
NI      7.3718976300     8.5123341620     1.1900000730
NI      4.9145984200     0.0000000000     1.1900000730
NI      6.1432480250     2.1280835410     1.1900000730
NI      7.3718976300     4.2561670810     1.1900000730
NI      8.6005472350     6.3842506220     1.1900000730
NI      9.8291968400     8.5123341620     1.1900000730
NI      7.3718976300     0.0000000000     1.1900000730
NI      8.6005472350     2.1280835410     1.1900000730
NI      9.8291968400     4.2561670810     1.1900000730
NI     11.0578464450     6.3842506220     1.1900000730
NI     12.2864960500     8.5123341620     1.1900000730
NI      9.8291968400     0.0000000000     1.1900000730
NI     11.0578464450     2.1280835410     1.1900000730
NI     12.2864960500     4.2561670810     1.1900000730
NI     13.5151456550     6.3842506220     1.1900000730
NI     14.7437952600     8.5123341620     1.1900000730
NI      1.2281010156     0.7073174488     3.1985236781
NI      2.4567585763     2.8359500059     3.2002554806
NI      3.6864132270     4.9633641193     3.1981367985
NI      4.9157598160     7.0924470815     3.1982813451
NI      6.1436829822     9.2193601326     3.2007039797
NI      3.6855946713     0.7075894493     3.2005980698
NI      4.9178932479     2.8381553298     3.2021732358
NI      6.1463032550     4.9631449350     3.2067279301
NI      7.3722402404     7.0872877159     3.2042681738
NI      8.5999425157     9.2185282992     3.2019017491
NI      6.1421042115     0.7088067733     3.1977551171
NI      7.3723207135     2.8394408415     3.2055950747
NI      8.5974995151     4.9632377252     3.2074390004
NI      9.8271512400     7.0919066438     3.2000550150
NI     11.0571982529     9.2200698054     3.2009596909
NI      8.6010906827     0.7089375063     3.1980483538
NI      9.8249457000     2.8390873789     3.2034980571
NI     11.0561210631     4.9633733559     3.2000055191
NI     12.2859462895     7.0919991110     3.2011912928
NI     13.5151267801     9.2205637633     3.2014028036
NI     11.0576940860     0.7083211641     3.2003076455
NI     12.2849748894     2.8361910092     3.2013113716
NI     13.5146094668     4.9638413017     3.2011734473
NI     14.7439377203     7.0920201845     3.2013318301
NI     15.9727954241     9.2205537981     3.2012761721
NI      2.4546757571     1.4154628644     5.2115789947
NI      3.6845852017     3.5425394326     5.2088859621
NI      4.9132325873     5.6741207130     5.2042546975
NI      6.1443903736     7.8001556168     5.2107932915
NI      7.3709848176     9.9295803460     5.2132942155
NI      4.9125513741     1.4173323976     5.2101876831
NI      6.1572171849     3.5527158549     5.2390856092
NI      7.3712772776     5.6535573608     5.2463235400
NI      8.5980377089     7.7978961743     5.2150731240
NI      9.8281733440     9.9281098487     5.2130781778
NI      7.3712319594     1.4153315033     5.2028753929
NI      8.5838270035     3.5544371847     5.2431047145
NI      9.8286159011     5.6732144070     5.2090638429
NI     11.0570798631     7.8003890987     5.2130571894
NI     12.2857050064     9.9293635595     5.2128677767
NI      9.8298433956     1.4180568433     5.2089387162
NI     11.0549529542     3.5434684371     5.2130477649
NI     12.2853017601     5.6721937617     5.2130560136
NI     13.5147215042     7.8009187165     5.2138941357
NI     14.7439956415     9.9298734312     5.2131153242
NI     12.2864613633     1.4159606731     5.2140227087
NI     13.5135514504     3.5439900543     5.2134177666
NI     14.7431389309     5.6718273707     5.2130136010
NI     15.9725574092     7.8012301994     5.2126865656
NI     17.2012948750     9.9294745986     5.2132436623
NI     -0.0007648970    -0.0023739326     7.2267303762
NI      1.2270804831     2.1243317606     7.2243494260
NI      2.4512426799     4.2529899686     7.2287762876
NI      3.6806995392     6.3839362187     7.2269243456
NI      4.9120608250     8.5125364668     7.2260257481
NI      2.4556079103    -0.0026729355     7.2228067644
NI      3.6829773636     2.1239822404     7.2235852630
NI      4.8918853266     4.2566489706     7.1967731765
NI      6.1303495594     6.3946432706     7.2058846884
NI      7.3705151587     8.5107444949     7.2237556879
NI      4.9117867616    -0.0067936316     7.2282502922
NI      6.1353959128     2.1057434803     7.2005732587
NI      7.3700445576     4.2508426068     7.4183658686
NI      8.6088335595     6.3908686928     7.2153613393
NI      9.8296021485     8.5105254868     7.2261546414
NI      7.3714667342    -0.0071173076     7.2277736683
NI      8.6058640443     2.1081532018     7.2005466426
NI      9.8429293927     4.2562160077     7.2101919768
NI     11.0595409110     6.3827159778     7.2282918488
NI     12.2861195177     8.5090950646     7.2226589945
NI      9.8300821429    -0.0047349507     7.2276939596
NI     11.0563212182     2.1250524066     7.2266151241
NI     12.2865256588     4.2529938208     7.2262812782
NI     13.5137249147     6.3818648634     7.2225789941
NI     14.7424137913     8.5094790886     7.2215414609
O       7.3686393555     4.2468999459     9.2406816559
H       7.3687935784     4.2470578556    10.1760464245
102
Step 2 | ATOMIC_POSITIONS (angstrom) | Cartesian Angstrom
NI      0.0000000000     0.0000000000     1.1900000730
NI      1.2286496050     2.1280835410     1.1900000730
NI      2.4572992100     4.2561670810     1.1900000730
NI      3.6859488150     6.3842506220     1.1900000730
NI      4.9145984200     8.5123341620     1.1900000730
NI      2.4572992100     0.0000000000     1.1900000730
NI      3.6859488150     2.1280835410     1.1900000730
NI      4.9145984200     4.2561670810     1.1900000730
NI      6.1432480250     6.3842506220     1.1900000730
NI      7.3718976300     8.5123341620     1.1900000730
NI      4.9145984200     0.0000000000     1.1900000730
NI      6.1432480250     2.1280835410     1.1900000730
NI      7.3718976300     4.2561670810     1.1900000730
NI      8.6005472350     6.3842506220     1.1900000730
NI      9.8291968400     8.5123341620     1.1900000730
NI      7.3718976300     0.0000000000     1.1900000730
NI      8.6005472350     2.1280835410     1.1900000730
NI      9.8291968400     4.2561670810     1.1900000730
NI     11.0578464450     6.3842506220     1.1900000730
NI     12.2864960500     8.5123341620     1.1900000730
NI      9.8291968400     0.0000000000     1.1900000730
NI     11.0578464450     2.1280835410     1.1900000730
NI     12.2864960500     4.2561670810     1.1900000730
NI     13.5151456550     6.3842506220     1.1900000730
NI     14.7437952600     8.5123341620     1.1900000730
NI      1.2281270772     0.7072944096     3.1984762727
NI      2.4568106860     2.8359053111     3.2001845782
NI      3.6863661932     4.9633936085     3.1980694498
NI      4.9156950941     7.0924717123     3.1982498541
NI      6.1437798717     9.2193333801     3.2005992218
NI      3.6855744344     0.7076297276     3.2005135973
NI      4.9180314291     2.8382419131     3.2020673818
NI      6.1463575951     4.9631020119     3.2068852208
NI      7.3722794271     7.0871369453     3.2041639769
NI      8.5998855728     9.2185090935     3.2017816699
NI      6.1420961774     0.7087403488     3.1976782214
NI      7.3723485193     2.8394837804     3.2057348247
NI      8.5974368761     4.9632061693     3.2075565771
NI      9.8271549234     7.0919515454     3.2000163500
NI     11.0572760557     9.2200327757     3.2008362150
NI      8.6010823508     0.7088763554     3.1980327125
NI      9.8247967493     2.8391812358     3.2034402257
NI     11.0561595627     4.9633914554     3.1999780971
NI     12.2860012307     7.0920205720     3.2011074609
NI     13.5151339768     9.2205231509     3.2013197244
NI     11.0577212545     0.7083777430     3.2002057510
NI     12.2849365248     2.8361348972     3.2011920307
NI     13.5146295146     4.9639360999     3.2010616396
NI     14.7439136180     7.0920267912     3.2012445812
NI     15.9727077096     9.2204973292     3.2011867130
NI      2.4547810395     1.4155443940     5.2116045600
NI      3.6844865123     3.5424793298     5.2088221783
NI      4.9133509172     5.6740755315     5.2043940564
NI      6.1443695563     7.8002629020     5.2107322984
NI      7.3709857525     9.9294521057     5.2133787768
NI      4.9124985905     1.4172862912     5.2101520774
NI      6.1566892250     3.5524219391     5.2392147810
NI      7.3712830869     5.6540048016     5.2467017966
NI      8.5980670314     7.7979509859     5.2150687041
NI      9.8281542269     9.9281386801     5.2132176507
NI      7.3712035161     1.4154518760     5.2029146498
NI      8.5842600127     3.5542366432     5.2434469937
NI      9.8285446163     5.6731779416     5.2091545459
NI     11.0570358967     7.8003707118     5.2131438901
NI     12.2857050273     9.9294227703     5.2129128709
NI      9.8299563497     1.4179766910     5.2087564540
NI     11.0550946969     3.5434247085     5.2129666842
NI     12.2852613071     5.6721251746     5.2131217106
NI     13.5147284233     7.8009404614     5.2138012342
NI     14.7440307215     9.9299363878     5.2131695129
NI     12.2863493148     1.4160563796     5.2141114288
NI     13.5135329862     3.5439262458     5.2135814961
NI     14.7431607701     5.6717671794     5.2130725380
NI     15.9726275625     7.8012482841     5.2127804106
NI     17.2013174632     9.9295079354     5.2133960453
NI     -0.0008115894    -0.0024097884     7.2268842530
NI      1.2271027968     2.1243664660     7.2244113928
NI      2.4511655922     4.2529511202     7.2289380603
NI      3.6809423034     6.3837833455     7.2269835493
NI      4.9120440458     8.5126455981     7.2260234131
NI      2.4556407978    -0.0026693253     7.2228134803
NI      3.6830922352     2.1240456388     7.2236828128
NI      4.8921537182     4.2567157562     7.1960868190
NI      6.1307510552     6.3940847154     7.2055901278
NI      7.3704958572     8.5106653921     7.2237463147
NI      4.9117590699    -0.0068483219     7.2283670560
NI      6.1357006977     2.1060505818     7.2001124448
NI      7.3703310657     4.2508656426     7.4171991796
NI      8.6083951076     6.3899296692     7.2154810191
NI      9.8296685389     8.5106173835     7.2261115276
NI      7.3714968741    -0.0068254172     7.2279109931
NI      8.6056401415     2.1087746763     7.2000610549
NI      9.8420966933     4.2562440573     7.2101013428
NI     11.0592670776     6.3825131396     7.2283668451
NI     12.2860994354     8.5091403559     7.2226911096
NI      9.8301485925    -0.0047398046     7.2278135744
NI     11.0560832578     2.1251863043     7.2268106595
NI     12.2865473085     4.2529399715     7.2262682728
NI     13.5137535284     6.3818144935     7.2225985973
NI     14.7424504778     8.5094974014     7.2215304914
O       7.3686890869     4.2469481085     9.2248177798
H       7.3687657701     4.2470266248    10.1926796466
102
Step 3 | ATOMIC_POSITIONS (angstrom) | Cartesian Angstrom
NI      0.0000000000     0.0000000000     1.1900000730
NI      1.2286496050     2.1280835410     1.1900000730
NI      2.4572992100     4.2561670810     1.1900000730
NI      3.6859488150     6.3842506220     1.1900000730
NI      4.9145984200     8.5123341620     1.1900000730
NI      2.4572992100     0.0000000000     1.1900000730
NI      3.6859488150     2.1280835410     1.1900000730
NI      4.9145984200     4.2561670810     1.1900000730
NI      6.1432480250     6.3842506220     1.1900000730
NI      7.3718976300     8.5123341620     1.1900000730
NI      4.9145984200     0.0000000000     1.1900000730
NI      6.1432480250     2.1280835410     1.1900000730
NI      7.3718976300     4.2561670810     1.1900000730
NI      8.6005472350     6.3842506220     1.1900000730
NI      9.8291968400     8.5123341620     1.1900000730
NI      7.3718976300     0.0000000000     1.1900000730
NI      8.6005472350     2.1280835410     1.1900000730
NI      9.8291968400     4.2561670810     1.1900000730
NI     11.0578464450     6.3842506220     1.1900000730
NI     12.2864960500     8.5123341620     1.1900000730
NI      9.8291968400     0.0000000000     1.1900000730
NI     11.0578464450     2.1280835410     1.1900000730
NI     12.2864960500     4.2561670810     1.1900000730
NI     13.5151456550     6.3842506220     1.1900000730
NI     14.7437952600     8.5123341620     1.1900000730
NI      1.2281014943     0.7073803958     3.1985482531
NI      2.4567614835     2.8359940311     3.2003196392
NI      3.6864720866     4.9632820790     3.1981958837
NI      4.9158098501     7.0923819065     3.1983060814
NI      6.1435947941     9.2193899644     3.2007925643
NI      3.6856492024     0.7076151387     3.2006696140
NI      4.9178097631     2.8380899215     3.2022857968
NI      6.1462464537     4.9631078890     3.2065765321
NI      7.3721951875     7.0873587592     3.2043620004
NI      8.6000058068     9.2185720693     3.2019951748
NI      6.1421075017     0.7089214518     3.1978285974
NI      7.3722601322     2.8394002396     3.2054670432
NI      8.5975197103     4.9632059391     3.2073199352
NI      9.8271426813     7.0918547836     3.2000780403
NI     11.0571555529     9.2201510856     3.2010509859
NI      8.6010653337     0.7090358776     3.1980683722
NI      9.8250217228     2.8390067764     3.2035617757
NI     11.0560832039     4.9633180171     3.2000238454
NI     12.2859174440     7.0919813305     3.2012520336
NI     13.5151118883     9.2206370610     3.2014678770
NI     11.0576414315     0.7083136471     3.2004023668
NI     12.2850086448     2.8362447015     3.2014171363
NI     13.5146188819     4.9637390951     3.2012570104
NI     14.7439585126     7.0919955277     3.2013970599
NI     15.9728376651     9.2206161799     3.2013415612
NI      2.4546459097     1.4154454291     5.2115485707
NI      3.6847542201     3.5425852354     5.2089657327
NI      4.9131619822     5.6740685204     5.2041866757
NI      6.1444055267     7.8000011385     5.2108794013
NI      7.3709925364     9.9296949838     5.2132166925
NI      4.9126474943     1.4174483521     5.2102301472
NI      6.1576389653     3.5529301337     5.2391068237
NI      7.3712437638     5.6531424658     5.2461108127
NI      8.5979981587     7.7978201080     5.2150761023
NI      9.8282196954     9.9281354393     5.2129665695
NI      7.3712277429     1.4152993245     5.2028882558
NI      8.5834413239     3.5545570676     5.2429338484
NI      9.8286337933     5.6731842781     5.2090151376
NI     11.0571100659     7.8004135808     5.2129836501
NI     12.2857082973     9.9293846023     5.2128212171
NI      9.8296816822     1.4181781837     5.2091268586
NI     11.0547871764     3.5434938088     5.2131243511
NI     12.2853356264     5.6722153415     5.2129988982
NI     13.5147225214     7.8009093085     5.2139623229
NI     14.7439443495     9.9298696676     5.2130606698
NI     12.2865371390     1.4159189125     5.2139283502
NI     13.5135945347     3.5440413574     5.2132784625
NI     14.7431550197     5.6718349816     5.2129573480
NI     15.9725055777     7.8011928790     5.2126075127
NI     17.2012454367     9.9294608966     5.2131271481
NI     -0.0007335328    -0.0023294107     7.2265726747
NI      1.2270832850     2.1243268840     7.2242687407
NI      2.4513064908     4.2530051315     7.2285813341
NI      3.6804627352     6.3840486527     7.2268338153
NI      4.9120413329     8.5124768483     7.2260216484
NI      2.4556042056    -0.0026463354     7.2227930930
NI      3.6828711419     2.1239302265     7.2234451223
NI      4.8917702803     4.2565592294     7.1974465240
NI      6.1300383953     6.3950024131     7.2061928036
NI      7.3705228473     8.5108541287     7.2237644544
NI      4.9118036145    -0.0067311954     7.2281020034
NI      6.1351752481     2.1055825833     7.2010202581
NI      7.3697772614     4.2508027619     7.4239173747
NI      8.6091553762     6.3915800749     7.2152682319
NI      9.8295794629     8.5105194153     7.2261943735
NI      7.3714211139    -0.0073705166     7.2275963534
NI      8.6059784047     2.1077110446     7.2010328815
NI      9.8435343397     4.2561619770     7.2102958280
NI     11.0598205045     6.3828997529     7.2282012359
NI     12.2861347928     8.5090870272     7.2226311268
NI      9.8300262142    -0.0047522332     7.2275594475
NI     11.0565537168     2.1249190267     7.2264008470
NI     12.2865740309     4.2530245623     7.2262758493
NI     13.5137165106     6.3818842203     7.2225627971
NI     14.7423861382     8.5094777228     7.2215569087
O       7.3686038372     4.2468548350     9.2227410921
H       7.3688206907     4.2470945190    10.1880203156
