102
Original structure exported from QE input in Cartesian Angstrom
NI      0.0000000000     0.0000000000     1.1900000730
NI      1.2286496050     2.1280835410     1.1900000730
NI      2.4572992100     4.2561670810     1.1900000730
NI      3.6859488150     6.3842506220     1.1900000730
NI      4.9145984200     8.5123341620     1.1900000730
NI      2.4572992100     0.0000000000     1.1900000730
NI      3.6859488150     2.1280835410     1.1900000730
NI      4.9145984200     4.2561670810     1.1900000730
NI      6.1432480250     6.3842506220     1.1900000730
NI      7.3718976300     8.5123341620     1.1900000730
NI      4.9145984200     0.0000000000     1.1900000730
NI      6.1432480250     2.1280835410     1.1900000730
NI      7.3718976300     4.2561670810     1.1900000730
NI      8.6005472350     6.3842506220     1.1900000730
NI      9.8291968400     8.5123341620     1.1900000730
NI      7.3718976300     0.0000000000     1.1900000730
NI      8.6005472350     2.1280835410     1.1900000730
NI      9.8291968400     4.2561670810     1.1900000730
NI     11.0578464450     6.3842506220     1.1900000730
NI     12.2864960500     8.5123341620     1.1900000730
NI      9.8291968400     0.0000000000     1.1900000730
NI     11.0578464450     2.1280835410     1.1900000730
NI     12.2864960500     4.2561670810     1.1900000730
NI     13.5151456550     6.3842506220     1.1900000730
NI     14.7437952600     8.5123341620     1.1900000730
NI      1.2281528510     0.7072716250     3.1984293910
NI      2.4568622200     2.8358611100     3.2001144590
NI      3.6863196790     4.9634227720     3.1980028450
NI      4.9156310870     7.0924960710     3.1982187110
NI      6.1438756910     9.2193069230     3.2004956210
NI      3.6855544210     0.7076695610     3.2004300580
NI      4.9181680840     2.8383275400     3.2019626970
NI      6.1464113350     4.9630595630     3.2070407740
NI      7.3723181810     7.0869878400     3.2040609310
NI      8.5998292590     9.2184901000     3.2016629170
NI      6.1420882320     0.7086746580     3.1976021750
NI      7.3723760180     2.8395262450     3.2058730310
NI      8.5973749290     4.9631749620     3.2076728550
NI      9.8271585660     7.0919959510     3.1999781120
NI     11.0573529990     9.2199961550     3.2007141030
NI      8.6010741110     0.7088158800     3.1980172440
NI      9.8246494440     2.8392740560     3.2033830330
NI     11.0561976370     4.9634093550     3.1999509780
NI     12.2860555650     7.0920417960     3.2010245550
NI     13.5151410940     9.2204829870     3.2012375630
NI     11.0577481230     0.7084336970     3.2001049820
NI     12.2848985840     2.8360794050     3.2010740080
NI     13.5146493410     4.9640298510     3.2009510670
NI     14.7438897820     7.0920333250     3.2011582960
NI     15.9726209640     9.2204414840     3.2010982420
NI      2.4548851590     1.4156250230     5.2116298430
NI      3.6843889130     3.5424198910     5.2087590990
NI      4.9134679400     5.6740308490     5.2045318760
NI      6.1443489690     7.8003690020     5.2106719790
NI      7.3709866770     9.9293252820     5.2134624040
NI      4.9124463900     1.4172406940     5.2101168650
NI      6.1561670970     3.5521312700     5.2393425260
NI      7.3712888320     5.6544473000     5.2470758750
NI      8.5980960300     7.7980051920     5.2150643330
NI      9.8281353210     9.9281671930     5.2133555830
NI      7.3711753870     1.4155709190     5.2029534730
NI      8.5846882390     3.5540383170     5.2437854920
NI      9.8284741190     5.6731418790     5.2092442470
NI     11.0569924160     7.8003525280     5.2132296330
NI     12.2857050480     9.9294813270     5.2129574670
NI      9.8300680560     1.4178974240     5.2085762050
NI     11.0552348740     3.5433814630     5.2128864990
NI     12.2852213010     5.6720573450     5.2131866820
NI     13.5147352660     7.8009619660     5.2137093590
NI     14.7440654140     9.9299986490     5.2132231030
NI     12.2862385040     1.4161510290     5.2141991690
NI     13.5135147260     3.5438631420     5.2137434170
NI     14.7431823680     5.6717076530     5.2131308240
NI     15.9726969410     7.8012661690     5.2128732190
NI     17.2013398020     9.9295409040     5.2135467450
NI     -0.0008577660    -0.0024452480     7.2270364300
NI      1.2271248640     2.1244007880     7.2244726750
NI      2.4510893560     4.2529127010     7.2290980460
NI      3.6811823860     6.3836321610     7.2270420990
NI      4.9120274520     8.5127535240     7.2260211040
NI      2.4556733220    -0.0026657550     7.2228201220
NI      3.6832058380     2.1241083370     7.2237792850
NI      4.8924191450     4.2567818040     7.1954080430
NI      6.1311481160     6.3935323300     7.2052988210
NI      7.3704767690     8.5105871630     7.2237370450
NI      4.9117316840    -0.0069024080     7.2284825300
NI      6.1360021160     2.1063542910     7.1996567210
NI      7.3706144090     4.2508884240     7.4160453780
NI      8.6079614990     6.3890010180     7.2155993770
NI      9.8297341960     8.5107082650     7.2260688900
NI      7.3715266810    -0.0065367510     7.2280468010
NI      8.6054187120     2.1093892860     7.1995808310
NI      9.8412731920     4.2562717970     7.2100117100
NI     11.0589962690     6.3823125420     7.2284410130
NI     12.2860795750     8.5091851470     7.2227228700
NI      9.8302143080    -0.0047446050     7.2279318680
NI     11.0558479260     2.1253187230     7.2270040350
NI     12.2865687190     4.2528867170     7.2262554110
NI     13.5137818260     6.3817646800     7.2226179840
NI     14.7424867590     8.5095155120     7.2215196430
O       7.3687382690     4.2469957390     9.2091291370
H       7.3687382690     4.2469957390    10.2091291370
