78
First NEB image (Cartesian Angstrom)
Ni      1.2286495068     0.7093611820    11.2499987845
Ni      2.4572979779     2.8374448130    11.2499987845
Ni      3.6859465474     4.9655284440    11.2499987845
Ni      4.9145950186     7.0936120750    11.2499987845
Ni      3.6859495068     0.7093611820    11.2499987845
Ni      4.9145980762     2.8374448130    11.2499987845
Ni      6.1432465474     4.9655284440    11.2499987845
Ni      7.3718951168     7.0936120750    11.2499987845
Ni      6.1432495068     0.7093611820    11.2499987845
Ni      7.3718980762     2.8374448130    11.2499987845
Ni      8.6005465474     4.9655284440    11.2499987845
Ni      9.8291951168     7.0936120750    11.2499987845
Ni      8.6005495068     0.7093611820    11.2499987845
Ni      9.8291980762     2.8374448130    11.2499987845
Ni     11.0578465474     4.9655284440    11.2499987845
Ni     12.2864951168     7.0936120750    11.2499987845
Ni      9.8231926870     0.0024995631    13.3023430983
Ni     11.0518083779     2.1302230371    13.3047071963
Ni     12.2800494291     4.2570701658    13.3044606221
Ni     13.5092851459     6.3850353902    13.3032122918
Ni      2.4517697964     0.0021660497    13.3026611713
Ni      3.6803272000     2.1303348892    13.3041124036
Ni      4.9088060194     4.2579343384    13.3054272085
Ni      6.1372724047     6.3857846462    13.3032768339
Ni      4.9086518098     0.0018312594    13.3024045486
Ni      6.1374029958     2.1309738253    13.3056080811
Ni      7.3661480391     4.2582430809    13.3069507125
Ni      8.5943390596     6.3854158917    13.3048440102
Ni      7.3652045939     0.0023769003    13.3020203875
Ni      8.5942378782     2.1304685329    13.3043852585
Ni      9.8231932174     4.2572719082    13.3057495328
Ni     11.0517658071     6.3857089715    13.3033332600
Ni      2.4490334906     1.4222222120    15.3362194665
Ni      3.6772954779     3.5494503529    15.3385511002
Ni      4.9061999013     5.6779272540    15.3378090586
Ni      6.1346544420     7.8070568812    15.3335983593
Ni      4.9058220283     1.4219693104    15.3362190800
Ni      6.1346414289     3.5508488450    15.3401399194
Ni      7.3625311352     5.6784252258    15.3395227108
Ni      8.5915674667     7.8062431016    15.3354836086
Ni      7.3627066461     1.4224391915    15.3370372581
Ni      8.5913274977     3.5492660608    15.3408158728
Ni      9.8201831191     5.6778116564    15.3377731160
Ni     11.0486406576     7.8069985717    15.3347446589
Ni      9.8200949615     1.4222875867    15.3366639185
Ni     11.0486063649     3.5492975565    15.3407250500
Ni     12.2774124964     5.6772858493    15.3359624573
Ni     13.5061515433     7.8063418447    15.3319283794
Ni      1.2137885081     0.7157123862    17.3876989166
Ni      2.4445571757     2.8433268235    17.3991003794
Ni      3.6707269413     4.9700357806    17.3919715844
Ni      4.9028720502     7.0981772773    17.3918934550
Ni      3.6763297596     0.7133740802    17.3932575643
Ni      4.9041137035     2.8406143632    17.3987747992
Ni      6.1059099258     4.9662780600    17.3552076582
Ni      7.3505057512     7.1168046595    17.3678398311
Ni      6.1312433325     0.7133270147    17.3910084889
Ni      7.3484724223     2.8259770123    17.3684891458
Ni      8.5872218977     4.9698341406    17.5308994629
Ni      9.8280444545     7.1139470013    17.3660880974
Ni      8.5900486619     0.7158784871    17.3953576799
Ni      9.8261236328     2.8288509043    17.3732129727
Ni     11.0620850967     4.9687735951    17.3701848619
Ni     12.2735298092     7.0954515578    17.3933288246
O       7.4657179135     3.9987803374    21.7854072228
O       8.3237630919     5.0516725956    19.5238890557
O       8.7950364508     4.8610130670    24.2591780634
C       8.5960983269     4.8901035634    21.8809435251
C       9.3345018582     4.8762670710    20.5445099400
C       9.5095155961     4.5885076553    23.0531881240
H       8.1445247280     5.8822722047    22.0298630816
H       9.8719665818     3.9277196219    20.3718705698
H      10.0399184173     5.7089574400    20.4326993892
H      10.4132605984     5.2197671075    22.9657965069
H       9.8351196335     3.5306048370    23.0055179042
H       7.7782978104     3.0816533324    21.8926307793
H       7.5507783729     4.5109687768    19.8127199801
H       9.3816581393     4.6917227453    25.0138842604
