78
Last NEB image (Cartesian Angstrom)
Ni      1.2286495068     0.7093611820    11.2499987845
Ni      2.4572979779     2.8374448130    11.2499987845
Ni      3.6859465474     4.9655284440    11.2499987845
Ni      4.9145950186     7.0936120750    11.2499987845
Ni      3.6859495068     0.7093611820    11.2499987845
Ni      4.9145980762     2.8374448130    11.2499987845
Ni      6.1432465474     4.9655284440    11.2499987845
Ni      7.3718951168     7.0936120750    11.2499987845
Ni      6.1432495068     0.7093611820    11.2499987845
Ni      7.3718980762     2.8374448130    11.2499987845
Ni      8.6005465474     4.9655284440    11.2499987845
Ni      9.8291951168     7.0936120750    11.2499987845
Ni      8.6005495068     0.7093611820    11.2499987845
Ni      9.8291980762     2.8374448130    11.2499987845
Ni     11.0578465474     4.9655284440    11.2499987845
Ni     12.2864951168     7.0936120750    11.2499987845
Ni      9.8231926870     0.0024995631    13.3023430983
Ni     11.0518083779     2.1302230371    13.3047071963
Ni     12.2800494291     4.2570701658    13.3044606221
Ni     13.5092851459     6.3850353902    13.3032122918
Ni      2.4517697964     0.0021660497    13.3026611713
Ni      3.6803272000     2.1303348892    13.3041124036
Ni      4.9088060194     4.2579343384    13.3054272085
Ni      6.1372724047     6.3857846462    13.3032768339
Ni      4.9086518098     0.0018312594    13.3024045486
Ni      6.1374029958     2.1309738253    13.3056080811
Ni      7.3661480391     4.2582430809    13.3069507125
Ni      8.5943390596     6.3854158917    13.3048440102
Ni      7.3652045939     0.0023769003    13.3020203875
Ni      8.5942378782     2.1304685329    13.3043852585
Ni      9.8231932174     4.2572719082    13.3057495328
Ni     11.0517658071     6.3857089715    13.3033332600
Ni      2.4490334906     1.4222222120    15.3362194665
Ni      3.6772954779     3.5494503529    15.3385511002
Ni      4.9061999013     5.6779272540    15.3378090586
Ni      6.1346544420     7.8070568812    15.3335983593
Ni      4.9058220283     1.4219693104    15.3362190800
Ni      6.1346414289     3.5508488450    15.3401399194
Ni      7.3625311352     5.6784252258    15.3395227108
Ni      8.5915674667     7.8062431016    15.3354836086
Ni      7.3627066461     1.4224391915    15.3370372581
Ni      8.5913274977     3.5492660608    15.3408158728
Ni      9.8201831191     5.6778116564    15.3377731160
Ni     11.0486406576     7.8069985717    15.3347446589
Ni      9.8200949615     1.4222875867    15.3366639185
Ni     11.0486063649     3.5492975565    15.3407250500
Ni     12.2774124964     5.6772858493    15.3359624573
Ni     13.5061515433     7.8063418447    15.3319283794
Ni      1.2085603622     0.7223261319    17.3837372147
Ni      2.4519175954     2.8423923723    17.4161648831
Ni      3.6728579877     4.9636314225    17.4110389246
Ni      4.8908861249     7.0995922925    17.3808726395
Ni      3.6756583035     0.7385861227    17.3575510109
Ni      4.8940454836     2.8379699185    17.4045970950
Ni      6.1063981000     4.9600553131    17.3589021924
Ni      7.3163825079     7.1208921045    17.4289285643
Ni      6.1426378266     0.7206454761    17.3799586196
Ni      7.3563031559     2.8244133705    17.3921257029
Ni      8.5950216536     4.9252708854    17.3984147801
Ni      9.8613828194     7.1193239608    17.4162889681
Ni      8.5919950174     0.7126027587    17.3976894965
Ni      9.8283688655     2.8224471545    17.3789345241
Ni     11.0717376318     4.9559178730    17.3579872497
Ni     12.2915585357     7.0980154394    17.3809614810
O       7.5088955102     4.0548043767    20.0342159632
O       8.6006259063     6.3690188706    18.7486312982
O       6.4081175596     4.6470816908    22.6824659306
C       7.5412109752     5.3322983037    20.6871219274
C       8.6665351404     6.2273803384    20.1682004753
C       7.6388898949     5.1877436152    22.2014839556
H       6.5728614697     5.7941985658    20.4333900891
H       9.6538432936     5.7968354504    20.4128054144
H       8.5940246311     7.2284988825    20.6208802583
H       7.8400138846     6.1793090040    22.6509859026
H       8.4917970944     4.5255438776    22.4410054857
H       8.4074337068     3.6693778895    20.0068281567
H       3.6797371033     3.5486931047    18.3886235442
H       6.5260320251     4.3884517034    23.6103171489
