78
Step 1 | NEB Image 1 | Cartesian Angstrom
Ni      1.2286495068     0.7093611820    11.2499987845
Ni      2.4572979779     2.8374448130    11.2499987845
Ni      3.6859465474     4.9655284440    11.2499987845
Ni      4.9145950186     7.0936120750    11.2499987845
Ni      3.6859495068     0.7093611820    11.2499987845
Ni      4.9145980762     2.8374448130    11.2499987845
Ni      6.1432465474     4.9655284440    11.2499987845
Ni      7.3718951168     7.0936120750    11.2499987845
Ni      6.1432495068     0.7093611820    11.2499987845
Ni      7.3718980762     2.8374448130    11.2499987845
Ni      8.6005465474     4.9655284440    11.2499987845
Ni      9.8291951168     7.0936120750    11.2499987845
Ni      8.6005495068     0.7093611820    11.2499987845
Ni      9.8291980762     2.8374448130    11.2499987845
Ni     11.0578465474     4.9655284440    11.2499987845
Ni     12.2864951168     7.0936120750    11.2499987845
Ni      9.8231926870     0.0024995631    13.3023430983
Ni     11.0518083779     2.1302230371    13.3047071963
Ni     12.2800494291     4.2570701658    13.3044606221
Ni     13.5092851459     6.3850353902    13.3032122918
Ni      2.4517697964     0.0021660497    13.3026611713
Ni      3.6803272000     2.1303348892    13.3041124036
Ni      4.9088060194     4.2579343384    13.3054272085
Ni      6.1372724047     6.3857846462    13.3032768339
Ni      4.9086518098     0.0018312594    13.3024045486
Ni      6.1374029958     2.1309738253    13.3056080811
Ni      7.3661480391     4.2582430809    13.3069507125
Ni      8.5943390596     6.3854158917    13.3048440102
Ni      7.3652045939     0.0023769003    13.3020203875
Ni      8.5942378782     2.1304685329    13.3043852585
Ni      9.8231932174     4.2572719082    13.3057495328
Ni     11.0517658071     6.3857089715    13.3033332600
Ni      2.4490334906     1.4222222120    15.3362194665
Ni      3.6772954779     3.5494503529    15.3385511002
Ni      4.9061999013     5.6779272540    15.3378090586
Ni      6.1346544420     7.8070568812    15.3335983593
Ni      4.9058220283     1.4219693104    15.3362190800
Ni      6.1346414289     3.5508488450    15.3401399194
Ni      7.3625311352     5.6784252258    15.3395227108
Ni      8.5915674667     7.8062431016    15.3354836086
Ni      7.3627066461     1.4224391915    15.3370372581
Ni      8.5913274977     3.5492660608    15.3408158728
Ni      9.8201831191     5.6778116564    15.3377731160
Ni     11.0486406576     7.8069985717    15.3347446589
Ni      9.8200949615     1.4222875867    15.3366639185
Ni     11.0486063649     3.5492975565    15.3407250500
Ni     12.2774124964     5.6772858493    15.3359624573
Ni     13.5061515433     7.8063418447    15.3319283794
Ni      1.2137807276     0.7155052706    17.3885335210
Ni      2.4449754072     2.8420464195    17.3984434303
Ni      3.6704066925     4.9697630577    17.3924506625
Ni      4.9010465223     7.0983196231    17.3919430427
Ni      3.6749370419     0.7148099192    17.3929967064
Ni      4.9018800554     2.8399647929    17.3979934296
Ni      6.1060755191     4.9665191841    17.3549630225
Ni      7.3510187429     7.1157564763    17.3694012734
Ni      6.1313498288     0.7126050327    17.3915798769
Ni      7.3488035165     2.8268811008    17.3683537782
Ni      8.5871049910     4.9702372869    17.5296060324
Ni      9.8269110034     7.1124445774    17.3667834982
Ni      8.5886440637     0.7143096273    17.3950350181
Ni      9.8250573252     2.8306939653    17.3732146311
Ni     11.0601703095     4.9687918808    17.3704146443
Ni     12.2737533684     7.0962484809    17.3929519733
O       7.4590116583     3.9985480395    21.7832886204
O       8.3199848936     5.0466811082    19.5209049240
O       8.7777704295     4.8729338539    24.2558785814
C       8.5889556275     4.8907599608    21.8776827561
C       9.3296555561     4.8720920329    20.5426982697
C       9.4985330117     4.5954426400    23.0545369665
H       8.1364249680     5.8833672079    22.0206922588
H       9.8658983448     3.9223000354    20.3726706071
H      10.0362980739     5.7035724741    20.4294796331
H      10.4019127746     5.2275845111    22.9679635874
H       9.8256727874     3.5376365771    23.0131722437
H       7.7728690314     3.0816871504    21.8890210844
H       7.5461451004     4.5071581751    19.8097128928
H       9.3615221655     4.7101041835    25.0141143296
78
Step 2 | NEB Image 2 | Cartesian Angstrom
Ni      1.2286495068     0.7093611820    11.2499987845
Ni      2.4572979779     2.8374448130    11.2499987845
Ni      3.6859465474     4.9655284440    11.2499987845
Ni      4.9145950186     7.0936120750    11.2499987845
Ni      3.6859495068     0.7093611820    11.2499987845
Ni      4.9145980762     2.8374448130    11.2499987845
Ni      6.1432465474     4.9655284440    11.2499987845
Ni      7.3718951168     7.0936120750    11.2499987845
Ni      6.1432495068     0.7093611820    11.2499987845
Ni      7.3718980762     2.8374448130    11.2499987845
Ni      8.6005465474     4.9655284440    11.2499987845
Ni      9.8291951168     7.0936120750    11.2499987845
Ni      8.6005495068     0.7093611820    11.2499987845
Ni      9.8291980762     2.8374448130    11.2499987845
Ni     11.0578465474     4.9655284440    11.2499987845
Ni     12.2864951168     7.0936120750    11.2499987845
Ni      9.8231926870     0.0024995631    13.3023430983
Ni     11.0518083779     2.1302230371    13.3047071963
Ni     12.2800494291     4.2570701658    13.3044606221
Ni     13.5092851459     6.3850353902    13.3032122918
Ni      2.4517697964     0.0021660497    13.3026611713
Ni      3.6803272000     2.1303348892    13.3041124036
Ni      4.9088060194     4.2579343384    13.3054272085
Ni      6.1372724047     6.3857846462    13.3032768339
Ni      4.9086518098     0.0018312594    13.3024045486
Ni      6.1374029958     2.1309738253    13.3056080811
Ni      7.3661480391     4.2582430809    13.3069507125
Ni      8.5943390596     6.3854158917    13.3048440102
Ni      7.3652045939     0.0023769003    13.3020203875
Ni      8.5942378782     2.1304685329    13.3043852585
Ni      9.8231932174     4.2572719082    13.3057495328
Ni     11.0517658071     6.3857089715    13.3033332600
Ni      2.4490334906     1.4222222120    15.3362194665
Ni      3.6772954779     3.5494503529    15.3385511002
Ni      4.9061999013     5.6779272540    15.3378090586
Ni      6.1346544420     7.8070568812    15.3335983593
Ni      4.9058220283     1.4219693104    15.3362190800
Ni      6.1346414289     3.5508488450    15.3401399194
Ni      7.3625311352     5.6784252258    15.3395227108
Ni      8.5915674667     7.8062431016    15.3354836086
Ni      7.3627066461     1.4224391915    15.3370372581
Ni      8.5913274977     3.5492660608    15.3408158728
Ni      9.8201831191     5.6778116564    15.3377731160
Ni     11.0486406576     7.8069985717    15.3347446589
Ni      9.8200949615     1.4222875867    15.3366639185
Ni     11.0486063649     3.5492975565    15.3407250500
Ni     12.2774124964     5.6772858493    15.3359624573
Ni     13.5061515433     7.8063418447    15.3319283794
Ni      1.2258317561     0.7193506214    17.3854693888
Ni      2.4655225437     2.8455763919    17.3969226898
Ni      3.6828303428     4.9740202396    17.3862119362
Ni      4.9057198507     7.0993289634    17.3845847781
Ni      3.6845180449     0.7277049755    17.3778660811
Ni      4.9253063203     2.8424255074    17.4258183890
Ni      6.1289012895     4.9606041265    17.4047130356
Ni      7.3497188848     7.1197407117    17.3974645839
Ni      6.1457858492     0.7068425330    17.3789307183
Ni      7.3810031164     2.8267866224    17.3953769949
Ni      8.6290158734     4.9667668707    17.5305237297
Ni      9.8334151147     7.1128367567    17.4156874794
Ni      8.6011978830     0.7146908980    17.3930386390
Ni      9.8420393414     2.8304358403    17.3831372255
Ni     11.0853602647     4.9677058812    17.3703012759
Ni     12.2907843843     7.1012438882    17.3861696946
O       7.3950298792     3.9808631077    21.4572118639
O       8.5758757490     5.5787992993    19.2452170174
O       8.4441701072     4.8921281721    24.0305903490
C       8.4152549704     4.9692338499    21.6187615002
C       9.3127071747     5.0979966775    20.3693324120
C       9.2687685029     4.7227272560    22.8702473917
H       7.8678623195     5.9140582665    21.7619526650
H       9.7708293175     4.1161296141    20.1495601207
H      10.1336861486     5.8073547509    20.5862348733
H      10.1196771291     5.4311676700    22.8816939106
H       9.6881204722     3.6946765155    22.8280199410
H       7.8063254418     3.1006868172    21.5256331044
H       6.2248363841     3.5207543596    18.4112870485
H       8.9928156386     4.7257114203    24.8152218571
78
Step 3 | NEB Image 3 | Cartesian Angstrom
Ni      1.2286495068     0.7093611820    11.2499987845
Ni      2.4572979779     2.8374448130    11.2499987845
Ni      3.6859465474     4.9655284440    11.2499987845
Ni      4.9145950186     7.0936120750    11.2499987845
Ni      3.6859495068     0.7093611820    11.2499987845
Ni      4.9145980762     2.8374448130    11.2499987845
Ni      6.1432465474     4.9655284440    11.2499987845
Ni      7.3718951168     7.0936120750    11.2499987845
Ni      6.1432495068     0.7093611820    11.2499987845
Ni      7.3718980762     2.8374448130    11.2499987845
Ni      8.6005465474     4.9655284440    11.2499987845
Ni      9.8291951168     7.0936120750    11.2499987845
Ni      8.6005495068     0.7093611820    11.2499987845
Ni      9.8291980762     2.8374448130    11.2499987845
Ni     11.0578465474     4.9655284440    11.2499987845
Ni     12.2864951168     7.0936120750    11.2499987845
Ni      9.8231926870     0.0024995631    13.3023430983
Ni     11.0518083779     2.1302230371    13.3047071963
Ni     12.2800494291     4.2570701658    13.3044606221
Ni     13.5092851459     6.3850353902    13.3032122918
Ni      2.4517697964     0.0021660497    13.3026611713
Ni      3.6803272000     2.1303348892    13.3041124036
Ni      4.9088060194     4.2579343384    13.3054272085
Ni      6.1372724047     6.3857846462    13.3032768339
Ni      4.9086518098     0.0018312594    13.3024045486
Ni      6.1374029958     2.1309738253    13.3056080811
Ni      7.3661480391     4.2582430809    13.3069507125
Ni      8.5943390596     6.3854158917    13.3048440102
Ni      7.3652045939     0.0023769003    13.3020203875
Ni      8.5942378782     2.1304685329    13.3043852585
Ni      9.8231932174     4.2572719082    13.3057495328
Ni     11.0517658071     6.3857089715    13.3033332600
Ni      2.4490334906     1.4222222120    15.3362194665
Ni      3.6772954779     3.5494503529    15.3385511002
Ni      4.9061999013     5.6779272540    15.3378090586
Ni      6.1346544420     7.8070568812    15.3335983593
Ni      4.9058220283     1.4219693104    15.3362190800
Ni      6.1346414289     3.5508488450    15.3401399194
Ni      7.3625311352     5.6784252258    15.3395227108
Ni      8.5915674667     7.8062431016    15.3354836086
Ni      7.3627066461     1.4224391915    15.3370372581
Ni      8.5913274977     3.5492660608    15.3408158728
Ni      9.8201831191     5.6778116564    15.3377731160
Ni     11.0486406576     7.8069985717    15.3347446589
Ni      9.8200949615     1.4222875867    15.3366639185
Ni     11.0486063649     3.5492975565    15.3407250500
Ni     12.2774124964     5.6772858493    15.3359624573
Ni     13.5061515433     7.8063418447    15.3319283794
Ni      1.2145743690     0.6922589279    17.3850255049
Ni      2.4471556844     2.8134033731    17.3917072314
Ni      3.6734095086     4.9495910253    17.4057048450
Ni      4.8900057865     7.0826478125    17.3772319766
Ni      3.6712011753     0.7033137515    17.3693583249
Ni      4.9054440802     2.8064802333    17.4103868788
Ni      6.1132018133     4.9356479355    17.3837384416
Ni      7.3226696536     7.0844858879    17.4516412256
Ni      6.1290957459     0.6777855861    17.3799042573
Ni      7.3590522317     2.7935883327    17.3924849938
Ni      8.5902650829     4.9035158718    17.4205610577
Ni      9.8216946493     7.0537048821    17.4966199973
Ni      8.5864884043     0.6885580798    17.3978303955
Ni      9.8290109549     2.8008661941    17.3831727923
Ni     11.0840935147     4.9249448678    17.3582911859
Ni     12.2827387404     7.0755998177    17.3814188513
O       7.3961870828     4.0062411958    20.7799762528
O       8.7139303187     6.0493644543    18.9402506215
O       7.7815572561     4.8276532588    23.6029466317
C       8.1308003405     5.1480356073    21.2259990878
C       9.2107312832     5.6022750129    20.2247552693
C       8.7925198187     4.9172700210    22.5936249965
H       7.3746335801     5.9401030662    21.3375526902
H       9.9113391374     4.7641011608    20.0540423368
H       9.7699390424     6.4417681655    20.6656322335
H       9.4905701001     5.7478688953    22.8093646671
H       9.3900409137     3.9829499111    22.5497720521
H       7.9467287560     3.2111365385    20.9002052305
H       5.4595678342     3.9052170737    18.4794881808
H       8.2211055403     4.6451494751    24.4505337836
78
Step 4 | NEB Image 4 | Cartesian Angstrom
Ni      1.2286495068     0.7093611820    11.2499987845
Ni      2.4572979779     2.8374448130    11.2499987845
Ni      3.6859465474     4.9655284440    11.2499987845
Ni      4.9145950186     7.0936120750    11.2499987845
Ni      3.6859495068     0.7093611820    11.2499987845
Ni      4.9145980762     2.8374448130    11.2499987845
Ni      6.1432465474     4.9655284440    11.2499987845
Ni      7.3718951168     7.0936120750    11.2499987845
Ni      6.1432495068     0.7093611820    11.2499987845
Ni      7.3718980762     2.8374448130    11.2499987845
Ni      8.6005465474     4.9655284440    11.2499987845
Ni      9.8291951168     7.0936120750    11.2499987845
Ni      8.6005495068     0.7093611820    11.2499987845
Ni      9.8291980762     2.8374448130    11.2499987845
Ni     11.0578465474     4.9655284440    11.2499987845
Ni     12.2864951168     7.0936120750    11.2499987845
Ni      9.8231926870     0.0024995631    13.3023430983
Ni     11.0518083779     2.1302230371    13.3047071963
Ni     12.2800494291     4.2570701658    13.3044606221
Ni     13.5092851459     6.3850353902    13.3032122918
Ni      2.4517697964     0.0021660497    13.3026611713
Ni      3.6803272000     2.1303348892    13.3041124036
Ni      4.9088060194     4.2579343384    13.3054272085
Ni      6.1372724047     6.3857846462    13.3032768339
Ni      4.9086518098     0.0018312594    13.3024045486
Ni      6.1374029958     2.1309738253    13.3056080811
Ni      7.3661480391     4.2582430809    13.3069507125
Ni      8.5943390596     6.3854158917    13.3048440102
Ni      7.3652045939     0.0023769003    13.3020203875
Ni      8.5942378782     2.1304685329    13.3043852585
Ni      9.8231932174     4.2572719082    13.3057495328
Ni     11.0517658071     6.3857089715    13.3033332600
Ni      2.4490334906     1.4222222120    15.3362194665
Ni      3.6772954779     3.5494503529    15.3385511002
Ni      4.9061999013     5.6779272540    15.3378090586
Ni      6.1346544420     7.8070568812    15.3335983593
Ni      4.9058220283     1.4219693104    15.3362190800
Ni      6.1346414289     3.5508488450    15.3401399194
Ni      7.3625311352     5.6784252258    15.3395227108
Ni      8.5915674667     7.8062431016    15.3354836086
Ni      7.3627066461     1.4224391915    15.3370372581
Ni      8.5913274977     3.5492660608    15.3408158728
Ni      9.8201831191     5.6778116564    15.3377731160
Ni     11.0486406576     7.8069985717    15.3347446589
Ni      9.8200949615     1.4222875867    15.3366639185
Ni     11.0486063649     3.5492975565    15.3407250500
Ni     12.2774124964     5.6772858493    15.3359624573
Ni     13.5061515433     7.8063418447    15.3319283794
Ni      1.2041714848     0.7048421427    17.3856729695
Ni      2.4344407958     2.8220331479    17.3910182650
Ni      3.6696135712     4.9581601914    17.4164467753
Ni      4.8857459029     7.0981720259    17.3749818137
Ni      3.6651539737     0.7304746269    17.3637014289
Ni      4.8961876853     2.8188277662    17.4080543303
Ni      6.1099172485     4.9493508393    17.3751336103
Ni      7.3209675023     7.1062817182    17.4632326979
Ni      6.1292166662     0.7025126738    17.3810228864
Ni      7.3563952767     2.8047303476    17.3838312258
Ni      8.5892635855     4.9048300450    17.3977705494
Ni      9.8405772366     7.0900782522    17.4312835848
Ni      8.5774505507     0.6974348475    17.4016788073
Ni      9.8213760179     2.8070482529    17.3837709742
Ni     11.0816535655     4.9320510470    17.3590792421
Ni     12.2826642630     7.0850114324    17.3808726139
O       7.4341061229     4.0352305864    20.2789756611
O       8.6330669615     6.2542785967    18.7959512785
O       7.0399877810     4.7187437304    23.1258477777
C       7.8112381373     5.2610257170    20.9112165966
C       8.9405531933     5.9914400597    20.1737919262
C       8.2072749568     5.0600795625    22.3754654308
H       6.8995858339     5.8763303313    20.8744808048
H       9.8622765363     5.3820036238    20.1952357761
H       9.1409557966     6.9560699188    20.6642533548
H       8.6687965248     5.9886898316    22.7621930252
H       8.9688181761     4.2577206628    22.4323988079
H       8.1905208005     3.4178282536    20.2860743322
H       4.9305324515     4.2492119128    18.3710597285
H       7.3134351506     4.4955107395    24.0306001016
78
Step 5 | NEB Image 5 | Cartesian Angstrom
Ni      1.2286495068     0.7093611820    11.2499987845
Ni      2.4572979779     2.8374448130    11.2499987845
Ni      3.6859465474     4.9655284440    11.2499987845
Ni      4.9145950186     7.0936120750    11.2499987845
Ni      3.6859495068     0.7093611820    11.2499987845
Ni      4.9145980762     2.8374448130    11.2499987845
Ni      6.1432465474     4.9655284440    11.2499987845
Ni      7.3718951168     7.0936120750    11.2499987845
Ni      6.1432495068     0.7093611820    11.2499987845
Ni      7.3718980762     2.8374448130    11.2499987845
Ni      8.6005465474     4.9655284440    11.2499987845
Ni      9.8291951168     7.0936120750    11.2499987845
Ni      8.6005495068     0.7093611820    11.2499987845
Ni      9.8291980762     2.8374448130    11.2499987845
Ni     11.0578465474     4.9655284440    11.2499987845
Ni     12.2864951168     7.0936120750    11.2499987845
Ni      9.8231926870     0.0024995631    13.3023430983
Ni     11.0518083779     2.1302230371    13.3047071963
Ni     12.2800494291     4.2570701658    13.3044606221
Ni     13.5092851459     6.3850353902    13.3032122918
Ni      2.4517697964     0.0021660497    13.3026611713
Ni      3.6803272000     2.1303348892    13.3041124036
Ni      4.9088060194     4.2579343384    13.3054272085
Ni      6.1372724047     6.3857846462    13.3032768339
Ni      4.9086518098     0.0018312594    13.3024045486
Ni      6.1374029958     2.1309738253    13.3056080811
Ni      7.3661480391     4.2582430809    13.3069507125
Ni      8.5943390596     6.3854158917    13.3048440102
Ni      7.3652045939     0.0023769003    13.3020203875
Ni      8.5942378782     2.1304685329    13.3043852585
Ni      9.8231932174     4.2572719082    13.3057495328
Ni     11.0517658071     6.3857089715    13.3033332600
Ni      2.4490334906     1.4222222120    15.3362194665
Ni      3.6772954779     3.5494503529    15.3385511002
Ni      4.9061999013     5.6779272540    15.3378090586
Ni      6.1346544420     7.8070568812    15.3335983593
Ni      4.9058220283     1.4219693104    15.3362190800
Ni      6.1346414289     3.5508488450    15.3401399194
Ni      7.3625311352     5.6784252258    15.3395227108
Ni      8.5915674667     7.8062431016    15.3354836086
Ni      7.3627066461     1.4224391915    15.3370372581
Ni      8.5913274977     3.5492660608    15.3408158728
Ni      9.8201831191     5.6778116564    15.3377731160
Ni     11.0486406576     7.8069985717    15.3347446589
Ni      9.8200949615     1.4222875867    15.3366639185
Ni     11.0486063649     3.5492975565    15.3407250500
Ni     12.2774124964     5.6772858493    15.3359624573
Ni     13.5061515433     7.8063418447    15.3319283794
Ni      1.2098207466     0.7216006017    17.3830297726
Ni      2.4459532443     2.8405593805    17.4142684972
Ni      3.6737501523     4.9678321308    17.4086426843
Ni      4.8897525505     7.0985244075    17.3796542522
Ni      3.6755522525     0.7346285321    17.3574606055
Ni      4.9007679390     2.8359497960    17.4023046286
Ni      6.1069302712     4.9585912606    17.3598594753
Ni      7.3177015330     7.1214460516    17.4289210793
Ni      6.1414317623     0.7210664611    17.3795629576
Ni      7.3543640287     2.8241703904    17.3895552925
Ni      8.5958363495     4.9251940359    17.3998861069
Ni      9.8593889140     7.1193368976    17.4181757789
Ni      8.5908854541     0.7113706365    17.3965410576
Ni      9.8285803302     2.8252567447    17.3795539885
Ni     11.0687859987     4.9555172628    17.3584122065
Ni     12.2917382425     7.0975275746    17.3805161877
O       7.4843780889     4.0661739358    20.0243811306
O       8.5977882140     6.3698882424    18.7492806432
O       6.4018028531     4.6565914662    22.6863926379
C       7.5317734596     5.3375239959    20.6875274195
C       8.6599562959     6.2290613460    20.1685278026
C       7.6395043253     5.1756736425    22.1992637294
H       6.5646007887     5.8077997386    20.4462822952
H       9.6458225245     5.7971301230    20.4153527447
H       8.5875416800     7.2302914304    20.6200598234
H       7.8663587640     6.1567143357    22.6584498716
H       8.4796018388     4.4929980255    22.4236603623
H       8.3804925347     3.6756056857    19.9827958666
H       3.6795804524     3.5481448142    18.3898855527
H       6.5304327078     4.3536335576    23.5992960940
