102
Original structure exported from QE input in Cartesian Angstrom
AG      0.0000000000     0.0000000000     1.6400000000
AG      2.9022182150     0.0000000000     1.6400000000
AG      5.8044364290     0.0000000000     1.6400000000
AG      8.7066546440     0.0000000000     1.6400000000
AG     11.6088728580     0.0000000000     1.6400000000
AG      1.4511091070     2.5133947010     1.6400000000
AG      4.3533273220     2.5133947010     1.6400000000
AG      7.2555455360     2.5133947010     1.6400000000
AG     10.1577637510     2.5133947010     1.6400000000
AG     13.0599819660     2.5133947010     1.6400000000
AG      2.9022182150     5.0267894020     1.6400000000
AG      5.8044364290     5.0267894020     1.6400000000
AG      8.7066546440     5.0267894020     1.6400000000
AG     11.6088728580     5.0267894020     1.6400000000
AG     14.5110910730     5.0267894020     1.6400000000
AG      4.3533273220     7.5401841030     1.6400000000
AG      7.2555455360     7.5401841030     1.6400000000
AG     10.1577637510     7.5401841030     1.6400000000
AG     13.0599819660     7.5401841030     1.6400000000
AG     15.9622001800     7.5401841030     1.6400000000
AG     20.3155275020    10.0535788050     1.6400000000
AG      8.7066546440    10.0535788050     1.6400000000
AG     11.6088728580    10.0535788050     1.6400000000
AG     14.5110910730    10.0535788050     1.6400000000
AG     17.4133092870    10.0535788050     1.6400000000
AG      1.4511091070     0.8377982340     4.0096512490
AG      4.3533273220     0.8377982340     4.0096512490
AG      7.2555455360     0.8377982340     4.0096512490
AG     10.1577637510     0.8377982340     4.0096512490
AG     13.0599819660     0.8377982340     4.0096512490
AG      2.9022182150     3.3511929350     4.0096512490
AG      5.8044364290     3.3511929350     4.0096512490
AG      8.7066546440     3.3511929350     4.0096512490
AG     11.6088728580     3.3511929350     4.0096512490
AG     14.5110910730     3.3511929350     4.0096512490
AG      4.3533273220     5.8645876360     4.0096512490
AG      7.2555455360     5.8645876360     4.0096512490
AG     10.1577637510     5.8645876360     4.0096512490
AG     13.0599819660     5.8645876360     4.0096512490
AG     15.9622001800     5.8645876360     4.0096512490
AG      5.8044364290     8.3779823370     4.0096512490
AG      8.7066546440     8.3779823370     4.0096512490
AG     11.6088728580     8.3779823370     4.0096512490
AG     14.5110910730     8.3779823370     4.0096512490
AG     17.4133092870     8.3779823370     4.0096512490
AG      7.2555455360    10.8913770380     4.0096512490
AG     10.1577637510    10.8913770380     4.0096512490
AG     13.0599819660    10.8913770380     4.0096512490
AG     15.9622001800    10.8913770380     4.0096512490
AG     18.8644183950    10.8913770380     4.0096512490
AG     14.5110910730     1.6755964670     6.3793024990
AG      2.9022182150     1.6755964670     6.3793024990
AG      5.8044364290     1.6755964670     6.3793024990
AG      8.7066546440     1.6755964670     6.3793024990
AG     11.6088728580     1.6755964670     6.3793024990
AG     15.9622001800     4.1889911690     6.3793024990
AG      4.3533273220     4.1889911690     6.3793024990
AG      7.2555455360     4.1889911690     6.3793024990
AG     10.1577637510     4.1889911690     6.3793024990
AG     13.0599819660     4.1889911690     6.3793024990
AG     17.4133092870     6.7023858700     6.3793024990
AG      5.8044364290     6.7023858700     6.3793024990
AG      8.7066546440     6.7023858700     6.3793024990
AG     11.6088728580     6.7023858700     6.3793024990
AG     14.5110910730     6.7023858700     6.3793024990
AG     18.8644183950     9.2157805710     6.3793024990
AG      7.2555455360     9.2157805710     6.3793024990
AG     10.1577637510     9.2157805710     6.3793024990
AG     13.0599819660     9.2157805710     6.3793024990
AG     15.9622001800     9.2157805710     6.3793024990
AG     20.3155275020    11.7291752720     6.3793024990
AG      8.7066546440    11.7291752720     6.3793024990
AG     11.6088728580    11.7291752720     6.3793024990
AG     14.5110910730    11.7291752720     6.3793024990
AG     17.4133092870    11.7291752720     6.3793024990
AG      0.0000000000     0.0000000000     8.7489537480
AG      2.9022182150     0.0000000000     8.7489537480
AG      5.8044364290     0.0000000000     8.7489537480
AG      8.7066546440     0.0000000000     8.7489537480
AG     11.6088728580     0.0000000000     8.7489537480
AG      1.4511091070     2.5133947010     8.7489537480
AG      4.3533273220     2.5133947010     8.7489537480
AG      7.2555455360     2.5133947010     8.7489537480
AG     10.1577637510     2.5133947010     8.7489537480
AG     13.0599819660     2.5133947010     8.7489537480
AG      2.9022182150     5.0267894020     8.7489537480
AG      5.8044364290     5.0267894020     8.7489537480
AG      8.7066546440     5.0267894020     8.7489537480
AG     11.6088728580     5.0267894020     8.7489537480
AG     14.5110910730     5.0267894020     8.7489537480
AG      4.3533273220     7.5401841030     8.7489537480
AG      7.2555455360     7.5401841030     8.7489537480
AG     10.1577637510     7.5401841030     8.7489537480
AG     13.0599819660     7.5401841030     8.7489537480
AG     15.9622001800     7.5401841030     8.7489537480
AG     20.3155275020    10.0535788050     8.7489537480
AG      8.7066546440    10.0535788050     8.7489537480
AG     11.6088728580    10.0535788050     8.7489537480
AG     14.5110910730    10.0535788050     8.7489537480
AG     17.4133092870    10.0535788050     8.7489537480
O       8.7118898860     5.0411852770    10.8489537480
H       8.7118898860     5.0411852770    11.8289537480
