102
Latest structure exported from QE output in Cartesian Angstrom
AG      0.0000000000     0.0000000000     1.6400000000
AG      2.9022182150     0.0000000000     1.6400000000
AG      5.8044364290     0.0000000000     1.6400000000
AG      8.7066546440     0.0000000000     1.6400000000
AG     11.6088728580     0.0000000000     1.6400000000
AG      1.4511091070     2.5133947010     1.6400000000
AG      4.3533273220     2.5133947010     1.6400000000
AG      7.2555455360     2.5133947010     1.6400000000
AG     10.1577637510     2.5133947010     1.6400000000
AG     13.0599819660     2.5133947010     1.6400000000
AG      2.9022182150     5.0267894020     1.6400000000
AG      5.8044364290     5.0267894020     1.6400000000
AG      8.7066546440     5.0267894020     1.6400000000
AG     11.6088728580     5.0267894020     1.6400000000
AG     14.5110910730     5.0267894020     1.6400000000
AG      4.3533273220     7.5401841030     1.6400000000
AG      7.2555455360     7.5401841030     1.6400000000
AG     10.1577637510     7.5401841030     1.6400000000
AG     13.0599819660     7.5401841030     1.6400000000
AG     15.9622001800     7.5401841030     1.6400000000
AG     20.3155275020    10.0535788050     1.6400000000
AG      8.7066546440    10.0535788050     1.6400000000
AG     11.6088728580    10.0535788050     1.6400000000
AG     14.5110910730    10.0535788050     1.6400000000
AG     17.4133092870    10.0535788050     1.6400000000
AG      1.4513871268     0.8376349480     3.9537396752
AG      4.3541169799     0.8333880523     3.9579957352
AG      7.2563342481     0.8412148016     3.9644008120
AG     10.1573815663     0.8407979171     3.9641528981
AG     13.0581557989     0.8343559805     3.9583911728
AG      2.9006616220     3.3541031191     3.9582851570
AG      5.7968819491     3.3475960591     3.9536493468
AG      8.7084885610     3.3452912534     3.9481339239
AG     11.6157089429     3.3487156626     3.9579178753
AG     14.5100181194     3.3555615667     3.9590627298
AG      4.3565622011     5.8644761464     3.9652550965
AG      7.2537821290     5.8708805816     3.9513856692
AG     10.1600903016     5.8692156461     3.9521829794
AG     13.0566014310     5.8649175588     3.9663299901
AG     15.9619677655     5.8656256504     3.9609285073
AG      5.8057423249     8.3760608312     3.9639596294
AG      8.7073500223     8.3827044367     3.9641174168
AG     11.6078521740     8.3748592774     3.9657966598
AG     14.5068450285     8.3751579638     3.9598197042
AG     17.4165970907     8.3757205325     3.9593815486
AG      7.2532602861    10.8883976193     3.9601665327
AG     10.1599070182    10.8869134547     3.9599053571
AG     13.0594821462    10.8911399600     3.9612574254
AG     15.9625280685    10.8941024550     3.9573858797
AG     18.8647386046    10.8912807900     3.9617255144
AG     14.5102192768     1.6765423214     6.2959900964
AG      2.9019200412     1.6765450586     6.2976901969
AG      5.7997312090     1.6742452821     6.2991975680
AG      8.7068760505     1.6797385044     6.3141429923
AG     11.6106231460     1.6766746626     6.3024612717
AG     15.9611672808     4.1883778947     6.2957840980
AG      4.3526541059     4.1869847371     6.3038169689
AG      7.2539200804     4.1848759171     6.2950296592
AG     10.1518115163     4.1896669904     6.3079441938
AG     13.0561381537     4.1881005602     6.3100268140
AG     17.4115317481     6.7022149719     6.3011497961
AG      5.8093743536     6.7009472728     6.3203848048
AG      8.7067869130     6.6816486941     6.3329236808
AG     11.6024771425     6.6987075535     6.3250577348
AG     14.5121405501     6.7028100429     6.3014100927
AG     18.8639439755     9.2158827413     6.3027905912
AG      7.2577124927     9.2081688193     6.3115937364
AG     10.1545485879     9.2091312034     6.3123946309
AG     13.0604733344     9.2153683620     6.3027624988
AG     15.9628581147     9.2169468750     6.3043312911
AG     20.3176966848    11.7284062516     6.2963529275
AG      8.7063246947    11.7238526464     6.2958616623
AG     11.6068979752    11.7268393202     6.2968033318
AG     14.5109607358    11.7278565253     6.3008043201
AG     17.4131206053    11.7276510617     6.3013555356
AG     -0.0025359388    -0.0037489799     8.6172280279
AG      2.9039001247    -0.0038189702     8.6166526178
AG      5.7995048431    -0.0064278890     8.6272036564
AG      8.7066997996    -0.0028174668     8.6311491083
AG     11.6126396709    -0.0034796218     8.6275752231
AG      1.4506584326     2.5176023992     8.6177038043
AG      4.3535401489     2.5131048392     8.6287706429
AG      7.2312232733     2.4702841702     8.6256155881
AG     10.1691297458     2.4814067018     8.6271241653
AG     13.0573392442     2.5132949167     8.6279011228
AG      2.9010398576     5.0264787437     8.6277833434
AG      5.7876768400     5.0172337551     8.6258678173
AG      8.6696756390     4.9274581579     8.6843067105
AG     11.6012536643     5.0185025210     8.6351424268
AG     14.5082384257     5.0267824678     8.6283626436
AG      4.3544208894     7.5380761228     8.6285743151
AG      7.2563794956     7.5284840423     8.6412070955
AG     10.1553418130     7.5343790308     8.6380111328
AG     13.0579139923     7.5373722999     8.6280677937
AG     15.9613453863     7.5349369004     8.6256879002
AG     20.3180380936    10.0511437090     8.6291769843
AG      8.7057318166    10.0479916705     8.6279677254
AG     11.6068532214    10.0506138325     8.6295538241
AG     14.5065401643    10.0547114646     8.6260271257
AG     17.4176007248    10.0556718786     8.6266265717
O       8.8898548698     5.5272550557    10.6593301192
H       8.6435890381     4.8534182381    11.3535085114
