102
Step 1 | ATOMIC_POSITIONS (angstrom) | Cartesian Angstrom
AG      0.0000000000     0.0000000000     1.6400000000
AG      2.9022182150     0.0000000000     1.6400000000
AG      5.8044364290     0.0000000000     1.6400000000
AG      8.7066546440     0.0000000000     1.6400000000
AG     11.6088728580     0.0000000000     1.6400000000
AG      1.4511091070     2.5133947010     1.6400000000
AG      4.3533273220     2.5133947010     1.6400000000
AG      7.2555455360     2.5133947010     1.6400000000
AG     10.1577637510     2.5133947010     1.6400000000
AG     13.0599819660     2.5133947010     1.6400000000
AG      2.9022182150     5.0267894020     1.6400000000
AG      5.8044364290     5.0267894020     1.6400000000
AG      8.7066546440     5.0267894020     1.6400000000
AG     11.6088728580     5.0267894020     1.6400000000
AG     14.5110910730     5.0267894020     1.6400000000
AG      4.3533273220     7.5401841030     1.6400000000
AG      7.2555455360     7.5401841030     1.6400000000
AG     10.1577637510     7.5401841030     1.6400000000
AG     13.0599819660     7.5401841030     1.6400000000
AG     15.9622001800     7.5401841030     1.6400000000
AG     20.3155275020    10.0535788050     1.6400000000
AG      8.7066546440    10.0535788050     1.6400000000
AG     11.6088728580    10.0535788050     1.6400000000
AG     14.5110910730    10.0535788050     1.6400000000
AG     17.4133092870    10.0535788050     1.6400000000
AG      1.4511099561     0.8378003518     4.0085200935
AG      4.3536185878     0.8379036849     4.0091533717
AG      7.2556491484     0.8378836443     4.0090639012
AG     10.1576595605     0.8378831621     4.0090610795
AG     13.0596902878     0.8379031406     4.0091545711
AG      2.9024580568     3.3513948162     4.0091527626
AG      5.8047720929     3.3513879640     4.0090093100
AG      8.7066551151     3.3510273467     4.0079499168
AG     11.6085381902     3.3513872309     4.0090061836
AG     14.5108495745     3.3513957940     4.0091536096
AG      4.3534515313     5.8646378292     4.0090638009
AG      7.2554054373     5.8646698878     4.0079446910
AG     10.1579030215     5.8646694619     4.0079415225
AG     13.0598585576     5.8646392713     4.0090609968
AG     15.9622002719     5.8643204156     4.0091020757
AG      5.8044538336     8.3778493916     4.0090572795
AG      8.7066553153     8.3775998406     4.0090019941
AG     11.6088568124     8.3778497302     4.0090569960
AG     14.5109802012     8.3779176908     4.0089122907
AG     17.4134191273     8.3779188941     4.0089110173
AG      7.2554918119    10.8910676939     4.0091573063
AG     10.1578171148    10.8910652081     4.0091572830
AG     13.0597500250    10.8915109975     4.0091024386
AG     15.9621998183    10.8915000214     4.0089079190
AG     18.8646510268    10.8915115529     4.0091017170
AG     14.5110950042     1.6755959230     6.3798935403
AG      2.9022135426     1.6755945146     6.3798945120
AG      5.8045611252     1.6760127227     6.3801441199
AG      8.7066562409     1.6760938691     6.3807114390
AG     11.6087463276     1.6760128901     6.3801481089
AG     15.9622001283     4.1890270641     6.3797139273
AG      4.3537514410     4.1888904013     6.3801502386
AG      7.2571565742     4.1899235792     6.3819311301
AG     10.1561590524     4.1899210710     6.3819273523
AG     13.0595549781     4.1888919912     6.3801567847
AG     17.4132953883     6.7023468331     6.3798146829
AG      5.8048736992     6.7021384550     6.3807219967
AG      8.7066554059     6.7005439907     6.3819228444
AG     11.6084340100     6.7021369386     6.3807276727
AG     14.5111046667     6.7023483509     6.3798135183
AG     18.8644432194     9.2158089406     6.3798152476
AG      7.2558447509     9.2154568184     6.3801585678
AG     10.1574635039     9.2154565191     6.3801610775
AG     13.0599570623     9.2158088082     6.3798146410
AG     15.9622017073     9.2157823784     6.3803330416
AG     20.3154965261    11.7291572175     6.3797133232
AG      8.7066555571    11.7291780023     6.3798872571
AG     11.6089037910    11.7291582376     6.3797127362
AG     14.5110505319    11.7291812248     6.3798157360
AG     17.4133491244    11.7291819450     6.3798170763
AG     -0.0002920748    -0.0001704230     8.7465595982
AG      2.9025079377    -0.0001698003     8.7465583475
AG      5.8044028496    -0.0000531565     8.7467757848
AG      8.7066530738    -0.0001173870     8.7466259535
AG     11.6089089603    -0.0000543194     8.7467779253
AG      1.4511090906     2.5137305814     8.7465573257
AG      4.3533959881     2.5134317886     8.7465290439
AG      7.2549594934     2.5120587979     8.7461192400
AG     10.1583447977     2.5120594208     8.7461286588
AG     13.0599168070     2.5134288723     8.7465285015
AG      2.9021547890     5.0267904459     8.7467773019
AG      5.8029908645     5.0269401191     8.7461371269
AG      8.7065732898     5.0265654409     8.7422510448
AG     11.6103119427     5.0269394499     8.7461570253
AG     14.5111575167     5.0267904698     8.7467793116
AG      4.3532164731     7.5402454593     8.7466218141
AG      7.2546873518     7.5413473209     8.7461647402
AG     10.1586160130     7.5413470871     8.7461772460
AG     13.0600968786     7.5402491753     8.7466194771
AG     15.9621991624     7.5398573479     8.7466920520
AG     20.3154951593    10.0536395173     8.7467804621
AG      8.7066534825    10.0535145890     8.7465239251
AG     11.6089068014    10.0536386727     8.7467810582
AG     14.5108075639    10.0537407048     8.7466903743
AG     17.4135916712    10.0537405796     8.7466907598
O       8.7120340296     5.0415807816    10.8592481957
H       8.7118334337     5.0410296609    11.8163596751
102
Step 2 | ATOMIC_POSITIONS (angstrom) | Cartesian Angstrom
AG      0.0000000000     0.0000000000     1.6400000000
AG      2.9022182150     0.0000000000     1.6400000000
AG      5.8044364290     0.0000000000     1.6400000000
AG      8.7066546440     0.0000000000     1.6400000000
AG     11.6088728580     0.0000000000     1.6400000000
AG      1.4511091070     2.5133947010     1.6400000000
AG      4.3533273220     2.5133947010     1.6400000000
AG      7.2555455360     2.5133947010     1.6400000000
AG     10.1577637510     2.5133947010     1.6400000000
AG     13.0599819660     2.5133947010     1.6400000000
AG      2.9022182150     5.0267894020     1.6400000000
AG      5.8044364290     5.0267894020     1.6400000000
AG      8.7066546440     5.0267894020     1.6400000000
AG     11.6088728580     5.0267894020     1.6400000000
AG     14.5110910730     5.0267894020     1.6400000000
AG      4.3533273220     7.5401841030     1.6400000000
AG      7.2555455360     7.5401841030     1.6400000000
AG     10.1577637510     7.5401841030     1.6400000000
AG     13.0599819660     7.5401841030     1.6400000000
AG     15.9622001800     7.5401841030     1.6400000000
AG     20.3155275020    10.0535788050     1.6400000000
AG      8.7066546440    10.0535788050     1.6400000000
AG     11.6088728580    10.0535788050     1.6400000000
AG     14.5110910730    10.0535788050     1.6400000000
AG     17.4133092870    10.0535788050     1.6400000000
AG      1.4511104399     0.8378024646     4.0068568900
AG      4.3540777044     0.8380796525     4.0084497392
AG      7.2558132699     0.8380255844     4.0082512148
AG     10.1574944299     0.8380239547     4.0082447959
AG     13.0592308084     0.8380787840     4.0084530492
AG      2.9028450267     3.3517070614     4.0084488779
AG      5.8053173747     3.3517041987     4.0081565043
AG      8.7066561111     3.3507879205     4.0055082239
AG     11.6079949730     3.3517030919     4.0081483624
AG     14.5104596534     3.3517091781     4.0084514786
AG      4.3536541579     5.8647129627     4.0082523062
AG      7.2552029587     5.8647892755     4.0054946494
AG     10.1581044447     5.8647878341     4.0054864336
AG     13.0596570103     5.8647178066     4.0082459230
AG     15.9622003700     5.8639158557     4.0083077627
AG      5.8044876542     8.3776358826     4.0082354962
AG      8.7066560988     8.3769780929     4.0081383652
AG     11.6088250263     8.3776362968     4.0082355162
AG     14.5108093741     8.3778183125     4.0078424793
AG     17.4135874929     8.3778211738     4.0078389382
AG      7.2554166695    10.8905760380     4.0084601108
AG     10.1578918740    10.8905695270     4.0084601990
AG     13.0593985017    10.8917143289     4.0083080073
AG     15.9621993935    10.8916889258     4.0078316232
AG     18.8650035734    10.8917152442     4.0083071425
AG     14.5110965760     1.6755973307     6.3806289523
AG      2.9022103575     1.6755940485     6.3806334229
AG      5.8047547893     1.6766512026     6.3812129944
AG      8.7066582976     1.6768236345     6.3826062703
AG     11.6085509897     1.6766524190     6.3812225620
AG     15.9622000286     4.1890884320     6.3801876216
AG      4.3544039718     4.1887374844     6.3812292784
AG      7.2594444855     4.1912471144     6.3855707406
AG     10.1538813237     4.1912414854     6.3855629517
AG     13.0588980015     4.1887415755     6.3812449095
AG     17.4132985971     6.7022703648     6.3804246941
AG      5.8055166169     6.7017756606     6.3826342953
AG      8.7066566854     6.6979298075     6.3855571981
AG     11.6077886468     6.7017707931     6.3826485577
AG     14.5111002735     6.7022731856     6.3804221851
AG     18.8645090108     9.2158400274     6.3804274067
AG      7.2563032634     9.2149588442     6.3812511471
AG     10.1570043842     9.2149570943     6.3812572872
AG     13.0598908035     9.2158395619     6.3804251933
AG     15.9622032086     9.2157859561     6.3817346867
AG     20.3154440599    11.7291270403     6.3801865866
AG      8.7066568146    11.7291764190     6.3806142738
AG     11.6089564262    11.7291282321     6.3801860662
AG     14.5109858260    11.7292206094     6.3804280443
AG     17.4134124488    11.7292215216     6.3804311159
AG     -0.0007302888    -0.0004258417     8.7429257903
AG      2.9029436111    -0.0004250411     8.7429223923
AG      5.8043248441    -0.0001711369     8.7434727555
AG      8.7066512726    -0.0003512799     8.7430976485
AG     11.6089901700    -0.0001743368     8.7434783320
AG      1.4511081395     2.5142350035     8.7429207904
AG      4.3534617182     2.5134656800     8.7428613970
AG      7.2540707879     2.5100438941     8.7418818879
AG     10.1592259292     2.5100458793     8.7419065401
AG     13.0598560256     2.5134584455     8.7428581619
AG      2.9020117662     5.0267872085     8.7434774114
AG      5.8008110584     5.0271635619     8.7419280499
AG      8.7064526274     5.0262329160     8.7346082055
AG     11.6124785572     5.0271608092     8.7419780719
AG     14.5113043745     5.0267882120     8.7434817334
AG      4.3529999842     7.5403665905     8.7430875924
AG      7.2533997781     7.5430988680     8.7419996441
AG     10.1598936452     7.5430957956     8.7420295425
AG     13.0603200070     7.5403754849     8.7430810942
AG     15.9621980010     7.5393549571     8.7432695378
AG     20.3154267471    10.0537745540     8.7434856898
AG      8.7066524631    10.0534611469     8.7428478397
AG     11.6089774983    10.0537717509     8.7434866224
AG     14.5103725024    10.0539890836     8.7432672793
AG     17.4140254125    10.0539891493     8.7432665219
O       8.7122682724     5.0422258350    10.8529744144
H       8.7117353062     5.0407594994    11.8162092058
102
Step 3 | ATOMIC_POSITIONS (angstrom) | Cartesian Angstrom
AG      0.0000000000     0.0000000000     1.6400000000
AG      2.9022182150     0.0000000000     1.6400000000
AG      5.8044364290     0.0000000000     1.6400000000
AG      8.7066546440     0.0000000000     1.6400000000
AG     11.6088728580     0.0000000000     1.6400000000
AG      1.4511091070     2.5133947010     1.6400000000
AG      4.3533273220     2.5133947010     1.6400000000
AG      7.2555455360     2.5133947010     1.6400000000
AG     10.1577637510     2.5133947010     1.6400000000
AG     13.0599819660     2.5133947010     1.6400000000
AG      2.9022182150     5.0267894020     1.6400000000
AG      5.8044364290     5.0267894020     1.6400000000
AG      8.7066546440     5.0267894020     1.6400000000
AG     11.6088728580     5.0267894020     1.6400000000
AG     14.5110910730     5.0267894020     1.6400000000
AG      4.3533273220     7.5401841030     1.6400000000
AG      7.2555455360     7.5401841030     1.6400000000
AG     10.1577637510     7.5401841030     1.6400000000
AG     13.0599819660     7.5401841030     1.6400000000
AG     15.9622001800     7.5401841030     1.6400000000
AG     20.3155275020    10.0535788050     1.6400000000
AG      8.7066546440    10.0535788050     1.6400000000
AG     11.6088728580    10.0535788050     1.6400000000
AG     14.5110910730    10.0535788050     1.6400000000
AG     17.4133092870    10.0535788050     1.6400000000
AG      1.4511115932     0.8378056483     4.0049136329
AG      4.3546474929     0.8383266258     4.0076855242
AG      7.2560301723     0.8382114109     4.0073914546
AG     10.1572767279     0.8382089355     4.0073804915
AG     13.0586604673     0.8383261442     4.0076917742
AG      2.9033506108     3.3520802001     4.0076844433
AG      5.8060636114     3.3521374987     4.0073097545
AG      8.7066571856     3.3505436263     4.0027361847
AG     11.6072521372     3.3521350505     4.0072971757
AG     14.5099496383     3.3520836001     4.0076896842
AG      4.3539216838     5.8648129635     4.0073943872
AG      7.2549965899     5.8649118658     4.0027122481
AG     10.1583096147     5.8649089464     4.0026982875
AG     13.0593906662     5.8648210532     4.0073840696
AG     15.9622005017     5.8634365024     4.0074089938
AG      5.8045323477     8.3773537858     4.0073652638
AG      8.7066571085     8.3761266099     4.0072797230
AG     11.6087830991     8.3773541126     4.0073658880
AG     14.5106292997     8.3777131703     4.0066404887
AG     17.4137644179     8.3777177801     4.0066339753
AG      7.2553479932    10.8899497239     4.0077042648
AG     10.1579597494    10.8899388610     4.0077042885
AG     13.0589812798    10.8919553722     4.0074093701
AG     15.9621988512    10.8918865581     4.0066206597
AG     18.8654219014    10.8919570285     4.0074082476
AG     14.5111166291     1.6755889787     6.3811200332
AG      2.9021888905     1.6755836397     6.3811289043
AG      5.8050126029     1.6774644545     6.3820758109
AG      8.7066616853     1.6777066247     6.3844342850
AG     11.6082896446     1.6774666880     6.3820918967
AG     15.9621998084     4.1891673266     6.3803848937
AG      4.3552413244     4.1885536467     6.3821046588
AG      7.2620191436     4.1927401646     6.3893828167
AG     10.1513171319     4.1927320169     6.3893783801
AG     13.0580550986     4.1885606571     6.3821327252
AG     17.4133325245     6.7021686432     6.3807754027
AG      5.8062961774     6.7013366975     6.3844871774
AG      8.7066597143     6.6949838018     6.3893806223
AG     11.6070051613     6.7013266660     6.3845141115
AG     14.5110648118     6.7021728974     6.3807714712
AG     18.8646116018     9.2158561020     6.3807805739
AG      7.2568797350     9.2143137503     6.3821435221
AG     10.1564263531     9.2143102750     6.3821560580
AG     13.0597873751     9.2158553345     6.3807765707
AG     15.9622054873     9.2157905837     6.3830643606
AG     20.3153772227    11.7290877453     6.3803839080
AG      8.7066579809    11.7291943167     6.3810945055
AG     11.6090235780    11.7290890593     6.3803827956
AG     14.5109152842    11.7292985182     6.3807818566
AG     17.4134814731    11.7293000178     6.3807865316
AG     -0.0012491413    -0.0007284180     8.7384303913
AG      2.9034599041    -0.0007275210     8.7384254602
AG      5.8042005423    -0.0003701857     8.7394116915
AG      8.7066492275    -0.0007387023     8.7387612379
AG     11.6091181684    -0.0003750729     8.7394204922
AG      1.4511071657     2.5148322001     8.7384226772
AG      4.3534908258     2.5134777547     8.7383680644
AG      7.2529737631     2.5075724005     8.7367522279
AG     10.1603108804     2.5075811813     8.7367953643
AG     13.0598333820     2.5134649834     8.7383624995
AG      2.9017757178     5.0267856253     8.7394191064
AG      5.7981430759     5.0274316072     8.7368342320
AG      8.7062942702     5.0257968191     8.7262048804
AG     11.6151228444     5.0274263430     8.7369230882
AG     14.5115449470     5.0267875714     8.7394268507
AG      4.3526482633     7.5405644877     8.7387427805
AG      7.2518338511     7.5452362249     8.7369610773
AG     10.1614455179     7.5452271025     8.7370129400
AG     13.0606788752     7.5405795406     8.7387316195
AG     15.9621968409     7.5387552980     8.7390587772
AG     20.3153108033    10.0539907500     8.7394341099
AG      8.7066505923    10.0534543867     8.7383447449
AG     11.6090965638    10.0539867161     8.7394361920
AG     14.5098531660    10.0542862438     8.7390550300
AG     17.4145430528    10.0542862612     8.7390542713
O       8.7126064707     5.0431556823    10.8469315812
H       8.7115886698     5.0403559343    11.8128963769
102
Step 4 | ATOMIC_POSITIONS (angstrom) | Cartesian Angstrom
AG      0.0000000000     0.0000000000     1.6400000000
AG      2.9022182150     0.0000000000     1.6400000000
AG      5.8044364290     0.0000000000     1.6400000000
AG      8.7066546440     0.0000000000     1.6400000000
AG     11.6088728580     0.0000000000     1.6400000000
AG      1.4511091070     2.5133947010     1.6400000000
AG      4.3533273220     2.5133947010     1.6400000000
AG      7.2555455360     2.5133947010     1.6400000000
AG     10.1577637510     2.5133947010     1.6400000000
AG     13.0599819660     2.5133947010     1.6400000000
AG      2.9022182150     5.0267894020     1.6400000000
AG      5.8044364290     5.0267894020     1.6400000000
AG      8.7066546440     5.0267894020     1.6400000000
AG     11.6088728580     5.0267894020     1.6400000000
AG     14.5110910730     5.0267894020     1.6400000000
AG      4.3533273220     7.5401841030     1.6400000000
AG      7.2555455360     7.5401841030     1.6400000000
AG     10.1577637510     7.5401841030     1.6400000000
AG     13.0599819660     7.5401841030     1.6400000000
AG     15.9622001800     7.5401841030     1.6400000000
AG     20.3155275020    10.0535788050     1.6400000000
AG      8.7066546440    10.0535788050     1.6400000000
AG     11.6088728580    10.0535788050     1.6400000000
AG     14.5110910730    10.0535788050     1.6400000000
AG     17.4133092870    10.0535788050     1.6400000000
AG      1.4511135783     0.8378117599     4.0017169557
AG      4.3556462051     0.8388234201     4.0065383415
AG      7.2564342974     0.8385641283     4.0061617035
AG     10.1568713717     0.8385600132     4.0061429646
AG     13.0576604847     0.8388237477     4.0065495936
AG      2.9042927158     3.3527021424     4.0065373284
AG      5.8075000692     3.3529715929     4.0062265454
AG      8.7066593004     3.3502121545     3.9983866113
AG     11.6058225528     3.3529671141     4.0062071488
AG     14.5089991949     3.3527084808     4.0065477386
AG      4.3544266704     5.8649954489     4.0061701692
AG      7.2547185122     5.8650799727     3.9983445418
AG     10.1585862928     5.8650740833     3.9983203260
AG     13.0588873439     5.8650094395     4.0061548487
AG     15.9622008695     5.8626295333     4.0059781962
AG      5.8046225356     8.3768244477     4.0061194228
AG      8.7066588829     8.3744861985     4.0061776024
AG     11.6086976794     8.3768241588     4.0061221710
AG     14.5103650534     8.3775587740     4.0047545656
AG     17.4140229162     8.3775664081     4.0047426047
AG      7.2552828610    10.8888188505     4.0065724342
AG     10.1580237052    10.8888004342     4.0065725287
AG     13.0582787119    10.8923613629     4.0059795336
AG     15.9621979945    10.8921732024     4.0047186434
AG     18.8661266828    10.8923642375     4.0059786000
AG     14.5111778384     1.6755600047     6.3811150237
AG      2.9021246360     1.6755505236     6.3811323065
AG      5.8054817854     1.6789158420     6.3826162679
AG      8.7066681798     1.6791994135     6.3865336188
AG     11.6078139362     1.6789201168     6.3826446970
AG     15.9621987838     4.1893057321     6.3799229350
AG      4.3567411543     4.1882338466     6.3826690675
AG      7.2659807185     4.1950411546     6.3945909467
AG     10.1473712398     4.1950324528     6.3946066157
AG     13.0565448685     4.1882465933     6.3827215926
AG     17.4134599879     6.7019586358     6.3805502448
AG      5.8076178593     6.7005951370     6.3866361464
AG      8.7066662687     6.6904415780     6.3946518330
AG     11.6056757231     6.7005746797     6.3866894170
AG     14.5109343031     6.7019647166     6.3805445766
AG     18.8648534624     9.2158410090     6.3805605954
AG      7.2579028392     9.2131531664     6.3827411056
AG     10.1554006096     9.2131456538     6.3827662909
AG     13.0595441447     9.2158400658     6.3805531326
AG     15.9622094906     9.2157999272     6.3845638518
AG     20.3152607549    11.7290185675     6.3799230526
AG      8.7066602169    11.7292546100     6.3810702767
AG     11.6091405058    11.7290194946     6.3799210537
AG     14.5107984992    11.7295095835     6.3805624692
AG     17.4135952493    11.7295119440     6.3805700392
AG     -0.0021043964    -0.0012271143     8.7305318126
AG      2.9043116772    -0.0012264948     8.7305240950
AG      5.8039048114    -0.0008379358     8.7323210639
AG      8.7066457542    -0.0016347403     8.7311988452
AG     11.6094195260    -0.0008459223     8.7323357478
AG      1.4511056324     2.5158168424     8.7305194156
AG      4.3534042894     2.5134197179     8.7305629189
AG      7.2510561995     2.5032912749     8.7280075250
AG     10.1622037437     2.5033188859     8.7280836449
AG     13.0599291690     2.5133977663     8.7305534387
AG      2.9012205237     5.0267750155     8.7323338745
AG      5.7935286625     5.0278793210     8.7281535265
AG      8.7059933298     5.0249666625     8.7136116156
AG     11.6196793754     5.0278696940     8.7283121301
AG     14.5121076482     5.0267791829     8.7323483697
AG      4.3518462625     7.5410183280     8.7311655680
AG      7.2491508410     7.5489186748     8.7283816122
AG     10.1640991284     7.5488918340     8.7284719248
AG     13.0614918328     7.5410431435     8.7311459621
AG     15.9621950521     7.5377394132     8.7317087163
AG     20.3150435950    10.0544950845     8.7323615586
AG      8.7066470776    10.0535971961     8.7305246537
AG     11.6093694265    10.0544892029     8.7323660076
AG     14.5089745335    10.0547903748     8.7317035977
AG     17.4154189081    10.0547900468     8.7317023287
O       8.7133151139     5.0451055707    10.8354693220
H       8.7112703608     5.0394803962    11.8050285642
102
Step 5 | ATOMIC_POSITIONS (angstrom) | Cartesian Angstrom
AG      0.0000000000     0.0000000000     1.6400000000
AG      2.9022182150     0.0000000000     1.6400000000
AG      5.8044364290     0.0000000000     1.6400000000
AG      8.7066546440     0.0000000000     1.6400000000
AG     11.6088728580     0.0000000000     1.6400000000
AG      1.4511091070     2.5133947010     1.6400000000
AG      4.3533273220     2.5133947010     1.6400000000
AG      7.2555455360     2.5133947010     1.6400000000
AG     10.1577637510     2.5133947010     1.6400000000
AG     13.0599819660     2.5133947010     1.6400000000
AG      2.9022182150     5.0267894020     1.6400000000
AG      5.8044364290     5.0267894020     1.6400000000
AG      8.7066546440     5.0267894020     1.6400000000
AG     11.6088728580     5.0267894020     1.6400000000
AG     14.5110910730     5.0267894020     1.6400000000
AG      4.3533273220     7.5401841030     1.6400000000
AG      7.2555455360     7.5401841030     1.6400000000
AG     10.1577637510     7.5401841030     1.6400000000
AG     13.0599819660     7.5401841030     1.6400000000
AG     15.9622001800     7.5401841030     1.6400000000
AG     20.3155275020    10.0535788050     1.6400000000
AG      8.7066546440    10.0535788050     1.6400000000
AG     11.6088728580    10.0535788050     1.6400000000
AG     14.5110910730    10.0535788050     1.6400000000
AG     17.4133092870    10.0535788050     1.6400000000
AG      1.4511167540     0.8378212640     3.9978590188
AG      4.3569415688     0.8395710992     4.0052875572
AG      7.2569994418     0.8390538129     4.0049463784
AG     10.1563045666     0.8390476343     4.0049182346
AG     13.0563629882     0.8395725142     4.0053056711
AG      2.9056056277     3.3534569403     4.0052876390
AG      5.8095642047     3.3541709892     4.0053859130
AG      8.7066632153     3.3499447918     3.9935659946
AG     11.6037674933     3.3541642551     4.0053596710
AG     14.5076743498     3.3534672007     4.0053052635
AG      4.3551316126     5.8652514557     4.0049672762
AG      7.2544988399     5.8652197586     3.9935027168
AG     10.1588050533     5.8652098830     3.9934649844
AG     13.0581836743     5.8652735433     4.0049478818
AG     15.9622012759     5.8616541257     4.0042859162
AG      5.8047477489     8.3760848726     4.0048885127
AG      8.7066619507     8.3721254798     4.0053202657
AG     11.6085781591     8.3760825622     4.0048968656
AG     14.5101151157     8.3774123827     4.0026143325
AG     17.4142650925     8.3774242839     4.0025944186
AG      7.2552873630    10.8872977192     4.0053428045
AG     10.1580175362    10.8872692716     4.0053431552
AG     13.0574286537    10.8928526033     4.0042897258
AG     15.9621973178    10.8924361726     4.0025554397
AG     18.8669794536    10.8928569947     4.0042899208
AG     14.5112853460     1.6755069042     6.3795373995
AG      2.9020122285     1.6754915619     6.3795674732
AG      5.8061100737     1.6808036651     6.3815802137
AG      8.7066772897     1.6810368549     6.3872792164
AG     11.6071761393     1.6808102935     6.3816257927
AG     15.9621969043     4.1894990380     6.3778595300
AG      4.3587034002     4.1878350346     6.3816690797
AG      7.2701466050     4.1974703619     6.3987656668
AG     10.1432173915     4.1974687338     6.3988379786
AG     13.0545677421     4.1878568092     6.3817573720
AG     17.4137417214     6.7016313438     6.3787485492
AG      5.8092525050     6.6996827362     6.3874602017
AG      8.7066774483     6.6856388995     6.3989965793
AG     11.6040296795     6.6996466569     6.3875555358
AG     14.5106476730     6.7016388921     6.3787416626
AG     18.8652733516     9.2157465518     6.3787666986
AG      7.2592218983     9.2116229113     6.3817900347
AG     10.1540779784     9.2116084505     6.3818352381
AG     13.0591210519     9.2157456783     6.3787556173
AG     15.9622151785     9.2158141584     6.3849933114
AG     20.3151008327    11.7289215187     6.3778627977
AG      8.7066629131    11.7293623237     6.3794674948
AG     11.6093017378    11.7289200781     6.3778597509
AG     14.5106586806    11.7299110976     6.3787683868
AG     17.4137306003    11.7299141968     6.3787795139
AG     -0.0031117180    -0.0018145227     8.7202687180
AG      2.9053152448    -0.0018144164     8.7202593108
AG      5.8033989658    -0.0016351856     8.7231690347
AG      8.7066415316    -0.0031586115     8.7214630504
AG     11.6099316805    -0.0016465305     8.7231925337
AG      1.4511037151     2.5169766992     8.7202528758
AG      4.3530692867     2.5132149619     8.7205795184
AG      7.2486013184     2.4978631199     8.7171226352
AG     10.1646183132     2.4979269243     8.7172436327
AG     13.0602744285     2.5131823131     8.7205649015
AG      2.9002762131     5.0267512107     8.7231902572
AG      5.7876974894     5.0284241410     8.7173555968
AG      8.7055456809     5.0237365386     8.7004627477
AG     11.6254071226     5.0284079716     8.7176095394
AG     14.5130599042     5.0267590814     8.7232145090
AG      4.3504993723     7.5417852444     8.7214110722
AG      7.2457971544     7.5535420962     8.7177221206
AG     10.1674059628     7.5534811931     8.7178634645
AG     13.0628501070     7.5418202276     8.7213802809
AG     15.9621940441     7.5364997676     8.7222352949
AG     20.3145946771    10.0553457295     8.7232369932
AG      8.7066424957    10.0540320768     8.7205241122
AG     11.6098250067    10.0553362115     8.7232441802
AG     14.5079039900    10.0554069395     8.7222296381
AG     17.4164862708    10.0554053365     8.7222287010
O       8.7144777734     5.0483052111    10.8188818239
H       8.7107340165     5.0380048231    11.7918221932
102
Step 6 | ATOMIC_POSITIONS (angstrom) | Cartesian Angstrom
AG      0.0000000000     0.0000000000     1.6400000000
AG      2.9022182150     0.0000000000     1.6400000000
AG      5.8044364290     0.0000000000     1.6400000000
AG      8.7066546440     0.0000000000     1.6400000000
AG     11.6088728580     0.0000000000     1.6400000000
AG      1.4511091070     2.5133947010     1.6400000000
AG      4.3533273220     2.5133947010     1.6400000000
AG      7.2555455360     2.5133947010     1.6400000000
AG     10.1577637510     2.5133947010     1.6400000000
AG     13.0599819660     2.5133947010     1.6400000000
AG      2.9022182150     5.0267894020     1.6400000000
AG      5.8044364290     5.0267894020     1.6400000000
AG      8.7066546440     5.0267894020     1.6400000000
AG     11.6088728580     5.0267894020     1.6400000000
AG     14.5110910730     5.0267894020     1.6400000000
AG      4.3533273220     7.5401841030     1.6400000000
AG      7.2555455360     7.5401841030     1.6400000000
AG     10.1577637510     7.5401841030     1.6400000000
AG     13.0599819660     7.5401841030     1.6400000000
AG     15.9622001800     7.5401841030     1.6400000000
AG     20.3155275020    10.0535788050     1.6400000000
AG      8.7066546440    10.0535788050     1.6400000000
AG     11.6088728580    10.0535788050     1.6400000000
AG     14.5110910730    10.0535788050     1.6400000000
AG     17.4133092870    10.0535788050     1.6400000000
AG      1.4511192684     0.8378297566     3.9954907154
AG      4.3578082237     0.8401869776     4.0045936918
AG      7.2574257697     0.8394098949     4.0044180780
AG     10.1558775525     0.8394024705     4.0043840043
AG     13.0554939174     0.8401891641     4.0046168382
AG      2.9065863081     3.3539032688     4.0045958668
AG      5.8111644980     3.3551013023     4.0052800861
AG      8.7066677670     3.3499473997     3.9911172199
AG     11.6021741158     3.3550941074     4.0052536510
AG     14.5066836674     3.3539168469     4.0046191164
AG      4.3556545273     5.8654507101     4.0044531663
AG      7.2545100570     5.8652288822     3.9910416217
AG     10.1587950433     5.8652144038     3.9909959363
AG     13.0576602997     5.8654785206     4.0044345552
AG     15.9622013500     5.8610804543     4.0032168747
AG      5.8048335200     8.3755321905     4.0043555545
AG      8.7066645737     8.3702909545     4.0052156106
AG     11.6084958558     8.3755270203     4.0043710703
AG     14.5100532973     8.3773764837     4.0014145659
AG     17.4143207388     8.3773919218     4.0013885950
AG      7.2553900251    10.8862184428     4.0046639693
AG     10.1579128099    10.8861822380     4.0046649141
AG     13.0569275488    10.8931414763     4.0032242734
AG     15.9621975715    10.8924869039     4.0013381828
AG     18.8674823756    10.8931468953     4.0032265619
AG     14.5113917380     1.6754526035     6.3766362581
AG      2.9019007403     1.6754324770     6.3766762917
AG      5.8065228567     1.6820315652     6.3788798312
AG      8.7066848432     1.6821580689     6.3855138532
AG     11.6067552255     1.6820403719     6.3789393052
AG     15.9621945575     4.1896405870     6.3747474433
AG      4.3599856465     4.1875808040     6.3790003997
AG      7.2718823042     4.1984954097     6.3986880803
AG     10.1414779790     4.1985092777     6.3988411988
AG     13.0532721038     4.1876101680     6.3791197545
AG     17.4140482202     6.7013495490     6.3757771454
AG      5.8102595829     6.6991271204     6.3857657062
AG      8.7066887566     6.6835898542     6.3991543050
AG     11.6030126923     6.6990773130     6.3858995079
AG     14.5103370739     6.7013571104     6.3757703563
AG     18.8656677432     9.2156115014     6.3758024770
AG      7.2600762308     9.2106141727     6.3791625129
AG     10.1532209192     9.2105922640     6.3792257887
AG     13.0587233450     9.2156108316     6.3757890000
AG     15.9622201125     9.2158274982     6.3835139123
AG     20.3149855917    11.7288495243     6.3747561741
AG      8.7066644358    11.7294696318     6.3765480553
AG     11.6094177879    11.7288449141     6.3747516622
AG     14.5105716089    11.7303121937     6.3758015409
AG     17.4138147206    11.7303157462     6.3758154977
AG     -0.0036596110    -0.0021335598     8.7132267376
AG      2.9058608966    -0.0021338522     8.7132173067
AG      5.8029121738    -0.0023837366     8.7169510145
AG      8.7066394114    -0.0045992602     8.7148903047
AG     11.6104213753    -0.0023960105     8.7169821120
AG      1.4511022662     2.5176064773     8.7132112518
AG      4.3525778921     2.5129226699     8.7139196135
AG      7.2469898523     2.4943400324     8.7102268593
AG     10.1661911628     2.4944423875     8.7103812094
AG     13.0607694694     2.5128840061     8.7139018551
AG      2.8993867984     5.0267151087     8.7169796468
AG      5.7839425602     5.0287549033     8.7105238485
AG      8.7051546934     5.0226584427     8.6943960626
AG     11.6290555701     5.0287333268     8.7108479480
AG     14.5139509543     5.0267261379     8.7170120747
AG      4.3492410205     7.5425052532     8.7148249774
AG      7.2436750830     7.5564768779     8.7109946257
AG     10.1694843653     7.5563786408     8.7111733421
AG     13.0641119168     7.5425441259     8.7147862262
AG     15.9621946944     7.5357609775     8.7158164627
AG     20.3141840449    10.0561440707     8.7170423007
AG      8.7066390060    10.0546218328     8.7138555643
AG     11.6102394760    10.0561306954     8.7170518046
AG     14.5072683855    10.0557760105     8.7158129107
AG     17.4171206836    10.0557730481     8.7158118570
O       8.7156101424     5.0514215345    10.8059169080
H       8.7102022256     5.0365419582    11.7796523314
