2
Step 1 | ATOMIC_POSITIONS (angstrom) | Cartesian Angstrom
O       8.6406650973    10.1440380453     9.6882636605
H       8.6713475850    10.1367535195    10.6859030931
2
Step 2 | ATOMIC_POSITIONS (angstrom) | Cartesian Angstrom
O       8.6408446431    10.1439950588     9.6941440232
H       8.6711680392    10.1367965060    10.6800227304
2
Step 3 | ATOMIC_POSITIONS (angstrom) | Cartesian Angstrom
O       8.6408497315    10.1439935820     9.6944399481
H       8.6711629508    10.1367979828    10.6797268055
2
Step 4 | ATOMIC_POSITIONS (angstrom) | Cartesian Angstrom
O       8.6408497315    10.1439935820     9.6944399481
H       8.6711629508    10.1367979828    10.6797268055
