78
Latest structure exported from QE output in Cartesian Angstrom
Ni      1.2286497520     0.7093615510    11.2500000000
Ni      2.4572990100     2.8374462050    11.2500000000
Ni      3.6859482670     4.9655308580    11.2500000000
Ni      4.9145975240     7.0936155120    11.2500000000
Ni      3.6859497520     0.7093615510    11.2500000000
Ni      4.9145990100     2.8374462050    11.2500000000
Ni      6.1432482670     4.9655308580    11.2500000000
Ni      7.3718975240     7.0936155120    11.2500000000
Ni      6.1432497520     0.7093615510    11.2500000000
Ni      7.3718990100     2.8374462050    11.2500000000
Ni      8.6005482670     4.9655308580    11.2500000000
Ni      9.8291975240     7.0936155120    11.2500000000
Ni      8.6005497520     0.7093615510    11.2500000000
Ni      9.8291990100     2.8374462050    11.2500000000
Ni     11.0578482670     4.9655308580    11.2500000000
Ni     12.2864975240     7.0936155120    11.2500000000
Ni      4.9099156437     8.5053429943    13.3011714153
Ni     11.0531329444     2.1206495289    13.3008022987
Ni     12.2817169742     4.2489790338    13.3006009374
Ni     13.5101985337     6.3773433495    13.3009431249
Ni      7.3672568657     8.5047181049    13.3011773704
Ni      3.6813642393     2.1207834059    13.3007249916
Ni      4.9098915811     4.2493198243    13.3009122649
Ni      6.1382079689     6.3774560515    13.3011135672
Ni      9.8241033231     8.5046823230    13.3010832757
Ni      6.1383369811     2.1207818053    13.3007715317
Ni      7.3668809572     4.2490234566    13.3008058444
Ni      8.5953896190     6.3767159329    13.3009510356
Ni     12.2816608155     8.5051500050    13.3006064561
Ni      8.5958456854     2.1206091639    13.3010363913
Ni      9.8244550653     4.2487038258    13.3007275536
Ni     11.0528529681     6.3769409810    13.3006612510
Cu      2.4478273934     1.4024593494    15.3768195279
Cu      3.6763308064     3.5307008763    15.3768060769
Cu      4.9041378635     5.6597275327    15.3773446705
Cu      6.1330260753     7.7878909917    15.3784795762
Cu      4.9046987935     1.4026027494    15.3777978376
Cu      6.1325026874     3.5313494179    15.3777258642
Cu      7.3610720821     5.6598451508    15.3779275454
Cu      8.5906751573     7.7868955285    15.3785352684
Cu      7.3621786350     1.4037478132    15.3762149869
Cu      8.5904727219     3.5321453649    15.3780682333
Cu      9.8190628607     5.6596863340    15.3769316566
Cu     11.0487962789     7.7874997913    15.3777155251
Cu      9.8196454140     1.4041813301    15.3774701118
Cu     11.0479045226     3.5315147301    15.3771972946
Cu     12.2765483612     5.6595853029    15.3771297580
Cu     13.5054403737     7.7883030906    15.3772812510
Cu      1.2110794767     0.6842779649    17.5689080883
Cu      2.4412639577     2.8104106382    17.5673213029
Cu      3.6684349603     4.9422114834    17.5714290122
Cu      4.8982392671     7.0714519024    17.5663945343
Cu      3.6701188886     0.6833126239    17.5711778794
Cu      4.8963448977     2.8103940919    17.6338271294
Cu      6.1125656243     4.9438935334    17.5661499255
Cu      7.3503683573     7.0826305768    17.5700704856
Cu      6.1321245054     0.6813144789    17.5700967840
Cu      7.3543111481     2.8026262274    17.5680213043
Cu      8.5940889577     4.9412045027    17.5015022773
Cu      9.8201974536     7.0786425419    17.5642563196
Cu      8.5882658777     0.6833764803    17.5617799431
Cu      9.8212257942     2.8034375984    17.5709821876
Cu     11.0546395826     4.9426587767    17.5595674035
Cu     12.2735499477     7.0691338554    17.5721604940
O       7.4460248182     4.0122633591    21.6835980715
O       8.5449143656     4.9437630055    19.3635035893
O       8.5458852142     4.9439052216    24.1304302526
C       8.5494765554     4.9213348847    21.7199446110
C       9.3877821951     4.7407965376    20.4474060912
C       9.3748497054     4.7209943427    22.9842439757
H       8.1044934159     5.9364581913    21.7095067301
H       9.7918443089     3.7029445251    20.4122000577
H      10.2448262682     5.4411760656    20.4109044896
H      10.2440193272     5.4068819320    23.0003484999
H       9.7475347849     3.6754141866    22.9978905431
H       7.8376811037     3.1239163508    21.6853415480
H       4.8360046846     2.8185895958    19.2847450979
H       9.1154667084     4.7788254924    24.9003336822
