78
Step 1 | ATOMIC_POSITIONS (angstrom) | Cartesian Angstrom
Ni      1.2286497520     0.7093615510    11.2500000000
Ni      2.4572990100     2.8374462050    11.2500000000
Ni      3.6859482670     4.9655308580    11.2500000000
Ni      4.9145975240     7.0936155120    11.2500000000
Ni      3.6859497520     0.7093615510    11.2500000000
Ni      4.9145990100     2.8374462050    11.2500000000
Ni      6.1432482670     4.9655308580    11.2500000000
Ni      7.3718975240     7.0936155120    11.2500000000
Ni      6.1432497520     0.7093615510    11.2500000000
Ni      7.3718990100     2.8374462050    11.2500000000
Ni      8.6005482670     4.9655308580    11.2500000000
Ni      9.8291975240     7.0936155120    11.2500000000
Ni      8.6005497520     0.7093615510    11.2500000000
Ni      9.8291990100     2.8374462050    11.2500000000
Ni     11.0578482670     4.9655308580    11.2500000000
Ni     12.2864975240     7.0936155120    11.2500000000
Ni      4.9099156437     8.5053429943    13.3011714153
Ni     11.0531329444     2.1206495289    13.3008022987
Ni     12.2817169742     4.2489790338    13.3006009374
Ni     13.5101985337     6.3773433495    13.3009431249
Ni      7.3672568657     8.5047181049    13.3011773704
Ni      3.6813642393     2.1207834059    13.3007249916
Ni      4.9098915811     4.2493198243    13.3009122649
Ni      6.1382079689     6.3774560515    13.3011135672
Ni      9.8241033231     8.5046823230    13.3010832757
Ni      6.1383369811     2.1207818053    13.3007715317
Ni      7.3668809572     4.2490234566    13.3008058444
Ni      8.5953896190     6.3767159329    13.3009510356
Ni     12.2816608155     8.5051500050    13.3006064561
Ni      8.5958456854     2.1206091639    13.3010363913
Ni      9.8244550653     4.2487038258    13.3007275536
Ni     11.0528529681     6.3769409810    13.3006612510
Cu      2.4478273934     1.4024593494    15.3768195279
Cu      3.6763308064     3.5307008763    15.3768060769
Cu      4.9041378635     5.6597275327    15.3773446705
Cu      6.1330260753     7.7878909917    15.3784795762
Cu      4.9046987935     1.4026027494    15.3777978376
Cu      6.1325026874     3.5313494179    15.3777258642
Cu      7.3610720821     5.6598451508    15.3779275454
Cu      8.5906751573     7.7868955285    15.3785352684
Cu      7.3621786350     1.4037478132    15.3762149869
Cu      8.5904727219     3.5321453649    15.3780682333
Cu      9.8190628607     5.6596863340    15.3769316566
Cu     11.0487962789     7.7874997913    15.3777155251
Cu      9.8196454140     1.4041813301    15.3774701118
Cu     11.0479045226     3.5315147301    15.3771972946
Cu     12.2765483612     5.6595853029    15.3771297580
Cu     13.5054403737     7.7883030906    15.3772812510
Cu      1.2128197957     0.6839134922    17.5694350410
Cu      2.4423063737     2.8111628495    17.5669088093
Cu      3.6696979048     4.9399785517    17.5698371862
Cu      4.8987053237     7.0697982884    17.5696197591
Cu      3.6710416543     0.6829376115    17.5713767683
Cu      4.8975003857     2.8109412853    17.5960275316
Cu      6.1210989088     4.9421859619    17.5689169299
Cu      7.3532463725     7.0752809799    17.5705632237
Cu      6.1306872541     0.6824934463    17.5694532167
Cu      7.3555965413     2.8088532752    17.5689948755
Cu      8.5889061732     4.9418065900    17.5309386322
Cu      9.8173973255     7.0736629377    17.5676600767
Cu      8.5872257860     0.6848156808    17.5648936280
Cu      9.8173329185     2.8092400899    17.5731955876
Cu     11.0477079976     4.9420384066    17.5653115614
Cu     12.2730650913     7.0691320268    17.5719771366
O       7.4565206336     4.0200460436    21.6827843413
O       8.5646319669     4.9358010957    19.3524646241
O       8.5536665315     4.9378230572    24.1258437513
C       8.5545811415     4.9252819673    21.7110657657
C       9.3797676281     4.7423573492    20.4414602855
C       9.3727256189     4.7237678089    22.9758548731
H       8.0990499152     5.9483776723    21.7093681805
H       9.7861160304     3.7032196284    20.4040588158
H      10.2330667280     5.4368660298    20.4062968872
H      10.2331282101     5.4023770901    23.0083124118
H       9.7412128260     3.6768612765    23.0081431133
H       7.8441947513     3.1195742724    21.6851321659
H       4.8349813611     2.8180555447    19.3348615316
H       9.1188805796     4.7774569754    24.8976596172
78
Step 2 | ATOMIC_POSITIONS (angstrom) | Cartesian Angstrom
Ni      1.2286497520     0.7093615510    11.2500000000
Ni      2.4572990100     2.8374462050    11.2500000000
Ni      3.6859482670     4.9655308580    11.2500000000
Ni      4.9145975240     7.0936155120    11.2500000000
Ni      3.6859497520     0.7093615510    11.2500000000
Ni      4.9145990100     2.8374462050    11.2500000000
Ni      6.1432482670     4.9655308580    11.2500000000
Ni      7.3718975240     7.0936155120    11.2500000000
Ni      6.1432497520     0.7093615510    11.2500000000
Ni      7.3718990100     2.8374462050    11.2500000000
Ni      8.6005482670     4.9655308580    11.2500000000
Ni      9.8291975240     7.0936155120    11.2500000000
Ni      8.6005497520     0.7093615510    11.2500000000
Ni      9.8291990100     2.8374462050    11.2500000000
Ni     11.0578482670     4.9655308580    11.2500000000
Ni     12.2864975240     7.0936155120    11.2500000000
Ni      4.9099156437     8.5053429943    13.3011714153
Ni     11.0531329444     2.1206495289    13.3008022987
Ni     12.2817169742     4.2489790338    13.3006009374
Ni     13.5101985337     6.3773433495    13.3009431249
Ni      7.3672568657     8.5047181049    13.3011773704
Ni      3.6813642393     2.1207834059    13.3007249916
Ni      4.9098915811     4.2493198243    13.3009122649
Ni      6.1382079689     6.3774560515    13.3011135672
Ni      9.8241033231     8.5046823230    13.3010832757
Ni      6.1383369811     2.1207818053    13.3007715317
Ni      7.3668809572     4.2490234566    13.3008058444
Ni      8.5953896190     6.3767159329    13.3009510356
Ni     12.2816608155     8.5051500050    13.3006064561
Ni      8.5958456854     2.1206091639    13.3010363913
Ni      9.8244550653     4.2487038258    13.3007275536
Ni     11.0528529681     6.3769409810    13.3006612510
Cu      2.4478273934     1.4024593494    15.3768195279
Cu      3.6763308064     3.5307008763    15.3768060769
Cu      4.9041378635     5.6597275327    15.3773446705
Cu      6.1330260753     7.7878909917    15.3784795762
Cu      4.9046987935     1.4026027494    15.3777978376
Cu      6.1325026874     3.5313494179    15.3777258642
Cu      7.3610720821     5.6598451508    15.3779275454
Cu      8.5906751573     7.7868955285    15.3785352684
Cu      7.3621786350     1.4037478132    15.3762149869
Cu      8.5904727219     3.5321453649    15.3780682333
Cu      9.8190628607     5.6596863340    15.3769316566
Cu     11.0487962789     7.7874997913    15.3777155251
Cu      9.8196454140     1.4041813301    15.3774701118
Cu     11.0479045226     3.5315147301    15.3771972946
Cu     12.2765483612     5.6595853029    15.3771297580
Cu     13.5054403737     7.7883030906    15.3772812510
Cu      1.2110794767     0.6842779649    17.5689080883
Cu      2.4412639577     2.8104106382    17.5673213029
Cu      3.6684349603     4.9422114834    17.5714290122
Cu      4.8982392671     7.0714519024    17.5663945343
Cu      3.6701188886     0.6833126239    17.5711778794
Cu      4.8963448977     2.8103940919    17.6338271294
Cu      6.1125656243     4.9438935334    17.5661499255
Cu      7.3503683573     7.0826305768    17.5700704856
Cu      6.1321245054     0.6813144789    17.5700967840
Cu      7.3543111481     2.8026262274    17.5680213043
Cu      8.5940889577     4.9412045027    17.5015022773
Cu      9.8201974536     7.0786425419    17.5642563196
Cu      8.5882658777     0.6833764803    17.5617799431
Cu      9.8212257942     2.8034375984    17.5709821876
Cu     11.0546395826     4.9426587767    17.5595674035
Cu     12.2735499477     7.0691338554    17.5721604940
O       7.4460248182     4.0122633591    21.6835980715
O       8.5449143656     4.9437630055    19.3635035893
O       8.5458852142     4.9439052216    24.1304302526
C       8.5494765554     4.9213348847    21.7199446110
C       9.3877821951     4.7407965376    20.4474060912
C       9.3748497054     4.7209943427    22.9842439757
H       8.1044934159     5.9364581913    21.7095067301
H       9.7918443089     3.7029445251    20.4122000577
H      10.2448262682     5.4411760656    20.4109044896
H      10.2440193272     5.4068819320    23.0003484999
H       9.7475347849     3.6754141866    22.9978905431
H       7.8376811037     3.1239163508    21.6853415480
H       4.8360046846     2.8185895958    19.2847450979
H       9.1154667084     4.7788254924    24.9003336822
78
Step 3 | ATOMIC_POSITIONS (angstrom) | Cartesian Angstrom
Ni      1.2286497520     0.7093615510    11.2500000000
Ni      2.4572990100     2.8374462050    11.2500000000
Ni      3.6859482670     4.9655308580    11.2500000000
Ni      4.9145975240     7.0936155120    11.2500000000
Ni      3.6859497520     0.7093615510    11.2500000000
Ni      4.9145990100     2.8374462050    11.2500000000
Ni      6.1432482670     4.9655308580    11.2500000000
Ni      7.3718975240     7.0936155120    11.2500000000
Ni      6.1432497520     0.7093615510    11.2500000000
Ni      7.3718990100     2.8374462050    11.2500000000
Ni      8.6005482670     4.9655308580    11.2500000000
Ni      9.8291975240     7.0936155120    11.2500000000
Ni      8.6005497520     0.7093615510    11.2500000000
Ni      9.8291990100     2.8374462050    11.2500000000
Ni     11.0578482670     4.9655308580    11.2500000000
Ni     12.2864975240     7.0936155120    11.2500000000
Ni      4.9099156437     8.5053429943    13.3011714153
Ni     11.0531329444     2.1206495289    13.3008022987
Ni     12.2817169742     4.2489790338    13.3006009374
Ni     13.5101985337     6.3773433495    13.3009431249
Ni      7.3672568657     8.5047181049    13.3011773704
Ni      3.6813642393     2.1207834059    13.3007249916
Ni      4.9098915811     4.2493198243    13.3009122649
Ni      6.1382079689     6.3774560515    13.3011135672
Ni      9.8241033231     8.5046823230    13.3010832757
Ni      6.1383369811     2.1207818053    13.3007715317
Ni      7.3668809572     4.2490234566    13.3008058444
Ni      8.5953896190     6.3767159329    13.3009510356
Ni     12.2816608155     8.5051500050    13.3006064561
Ni      8.5958456854     2.1206091639    13.3010363913
Ni      9.8244550653     4.2487038258    13.3007275536
Ni     11.0528529681     6.3769409810    13.3006612510
Cu      2.4478273934     1.4024593494    15.3768195279
Cu      3.6763308064     3.5307008763    15.3768060769
Cu      4.9041378635     5.6597275327    15.3773446705
Cu      6.1330260753     7.7878909917    15.3784795762
Cu      4.9046987935     1.4026027494    15.3777978376
Cu      6.1325026874     3.5313494179    15.3777258642
Cu      7.3610720821     5.6598451508    15.3779275454
Cu      8.5906751573     7.7868955285    15.3785352684
Cu      7.3621786350     1.4037478132    15.3762149869
Cu      8.5904727219     3.5321453649    15.3780682333
Cu      9.8190628607     5.6596863340    15.3769316566
Cu     11.0487962789     7.7874997913    15.3777155251
Cu      9.8196454140     1.4041813301    15.3774701118
Cu     11.0479045226     3.5315147301    15.3771972946
Cu     12.2765483612     5.6595853029    15.3771297580
Cu     13.5054403737     7.7883030906    15.3772812510
Cu      1.2094059800     0.6846977532    17.5682481376
Cu      2.4406132101     2.8095315330    17.5674505054
Cu      3.6671680355     4.9443092840    17.5729413645
Cu      4.8974753221     7.0733836327    17.5626772994
Cu      3.6692234618     0.6842152700    17.5705734943
Cu      4.8949709218     2.8096873114    17.6728158737
Cu      6.1049148139     4.9455336133    17.5630641748
Cu      7.3479174103     7.0892273662    17.5701185681
Cu      6.1335244465     0.6802303881    17.5704914639
Cu      7.3533602092     2.7972321096    17.5671613058
Cu      8.5993751066     4.9404105203    17.4837006069
Cu      9.8227132937     7.0831092012    17.5607875222
Cu      8.5892301981     0.6815577320    17.5581805466
Cu      9.8248214846     2.7982412914    17.5689098147
Cu     11.0611523493     4.9432836359    17.5532991136
Cu     12.2742904065     7.0694206808    17.5725033300
O       7.4368042053     4.0145430585    21.6856351427
O       8.5279476040     4.9519007770    19.3639468079
O       8.5449293779     4.9482791627    24.1346429988
C       8.5488609161     4.9135294461    21.7268397613
C       9.3905231665     4.7415884820    20.4538310179
C       9.3761717604     4.7216837675    22.9899263227
H       8.1080249640     5.9266229009    21.7105199531
H       9.7983572915     3.7032866640    20.4200171759
H      10.2538809315     5.4432095341    20.4163161985
H      10.2499087664     5.4076724611    22.9924745551
H       9.7540327806     3.6747549892    22.9895396055
H       7.8324993072     3.1193377517    21.6855973464
H       4.8371820709     2.8192798628    19.2296192929
H       9.1092853942     4.7810367084    24.9038573856
78
Step 4 | ATOMIC_POSITIONS (angstrom) | Cartesian Angstrom
Ni      1.2286497520     0.7093615510    11.2500000000
Ni      2.4572990100     2.8374462050    11.2500000000
Ni      3.6859482670     4.9655308580    11.2500000000
Ni      4.9145975240     7.0936155120    11.2500000000
Ni      3.6859497520     0.7093615510    11.2500000000
Ni      4.9145990100     2.8374462050    11.2500000000
Ni      6.1432482670     4.9655308580    11.2500000000
Ni      7.3718975240     7.0936155120    11.2500000000
Ni      6.1432497520     0.7093615510    11.2500000000
Ni      7.3718990100     2.8374462050    11.2500000000
Ni      8.6005482670     4.9655308580    11.2500000000
Ni      9.8291975240     7.0936155120    11.2500000000
Ni      8.6005497520     0.7093615510    11.2500000000
Ni      9.8291990100     2.8374462050    11.2500000000
Ni     11.0578482670     4.9655308580    11.2500000000
Ni     12.2864975240     7.0936155120    11.2500000000
Ni      4.9099156437     8.5053429943    13.3011714153
Ni     11.0531329444     2.1206495289    13.3008022987
Ni     12.2817169742     4.2489790338    13.3006009374
Ni     13.5101985337     6.3773433495    13.3009431249
Ni      7.3672568657     8.5047181049    13.3011773704
Ni      3.6813642393     2.1207834059    13.3007249916
Ni      4.9098915811     4.2493198243    13.3009122649
Ni      6.1382079689     6.3774560515    13.3011135672
Ni      9.8241033231     8.5046823230    13.3010832757
Ni      6.1383369811     2.1207818053    13.3007715317
Ni      7.3668809572     4.2490234566    13.3008058444
Ni      8.5953896190     6.3767159329    13.3009510356
Ni     12.2816608155     8.5051500050    13.3006064561
Ni      8.5958456854     2.1206091639    13.3010363913
Ni      9.8244550653     4.2487038258    13.3007275536
Ni     11.0528529681     6.3769409810    13.3006612510
Cu      2.4478273934     1.4024593494    15.3768195279
Cu      3.6763308064     3.5307008763    15.3768060769
Cu      4.9041378635     5.6597275327    15.3773446705
Cu      6.1330260753     7.7878909917    15.3784795762
Cu      4.9046987935     1.4026027494    15.3777978376
Cu      6.1325026874     3.5313494179    15.3777258642
Cu      7.3610720821     5.6598451508    15.3779275454
Cu      8.5906751573     7.7868955285    15.3785352684
Cu      7.3621786350     1.4037478132    15.3762149869
Cu      8.5904727219     3.5321453649    15.3780682333
Cu      9.8190628607     5.6596863340    15.3769316566
Cu     11.0487962789     7.7874997913    15.3777155251
Cu      9.8196454140     1.4041813301    15.3774701118
Cu     11.0479045226     3.5315147301    15.3771972946
Cu     12.2765483612     5.6595853029    15.3771297580
Cu     13.5054403737     7.7883030906    15.3772812510
Cu      1.2085393530     0.6850006910    17.5676727541
Cu      2.4408402342     2.8088725124    17.5670480646
Cu      3.6665137270     4.9453114389    17.5737690314
Cu      4.8966591212     7.0748772263    17.5596359182
Cu      3.6687786813     0.6855380070    17.5695244941
Cu      4.8942853111     2.8090235900    17.6880199274
Cu      6.1014811500     4.9463385458    17.5605539246
Cu      7.3470341966     7.0921502680    17.5708981209
Cu      6.1342678689     0.6798292985    17.5703650099
Cu      7.3531160788     2.7950933676    17.5666380543
Cu      8.6026855566     4.9397285538    17.4849405325
Cu      9.8238792280     7.0851533995    17.5584289890
Cu      8.5896707953     0.6800454550    17.5552202757
Cu      9.8266121297     2.7959072549    17.5677401858
Cu     11.0645657013     4.9436573628    17.5485146070
Cu     12.2750394759     7.0699765867    17.5729690248
O       7.4388166076     4.0093114769    21.6888237215
O       8.5235826999     4.9566687305    19.3581284255
O       8.5480870423     4.9506600350    24.1325289701
C       8.5494662883     4.9136414320    21.7282372711
C       9.3877368606     4.7420411023    20.4541216249
C       9.3776489888     4.7199106188    22.9909247367
H       8.1096410801     5.9207582793    21.7124876157
H       9.8020518709     3.7065250063    20.4238239838
H      10.2545834024     5.4414259795    20.4207940534
H      10.2493085469     5.4055508982    22.9875053473
H       9.7579641797     3.6772599531    22.9870417611
H       7.8230697536     3.1203070668    21.6857615799
H       4.8378112815     2.8200390086    19.1985726410
H       9.1055884672     4.7824629116    24.9110806173
78
Step 5 | ATOMIC_POSITIONS (angstrom) | Cartesian Angstrom
Ni      1.2286497520     0.7093615510    11.2500000000
Ni      2.4572990100     2.8374462050    11.2500000000
Ni      3.6859482670     4.9655308580    11.2500000000
Ni      4.9145975240     7.0936155120    11.2500000000
Ni      3.6859497520     0.7093615510    11.2500000000
Ni      4.9145990100     2.8374462050    11.2500000000
Ni      6.1432482670     4.9655308580    11.2500000000
Ni      7.3718975240     7.0936155120    11.2500000000
Ni      6.1432497520     0.7093615510    11.2500000000
Ni      7.3718990100     2.8374462050    11.2500000000
Ni      8.6005482670     4.9655308580    11.2500000000
Ni      9.8291975240     7.0936155120    11.2500000000
Ni      8.6005497520     0.7093615510    11.2500000000
Ni      9.8291990100     2.8374462050    11.2500000000
Ni     11.0578482670     4.9655308580    11.2500000000
Ni     12.2864975240     7.0936155120    11.2500000000
Ni      4.9099156437     8.5053429943    13.3011714153
Ni     11.0531329444     2.1206495289    13.3008022987
Ni     12.2817169742     4.2489790338    13.3006009374
Ni     13.5101985337     6.3773433495    13.3009431249
Ni      7.3672568657     8.5047181049    13.3011773704
Ni      3.6813642393     2.1207834059    13.3007249916
Ni      4.9098915811     4.2493198243    13.3009122649
Ni      6.1382079689     6.3774560515    13.3011135672
Ni      9.8241033231     8.5046823230    13.3010832757
Ni      6.1383369811     2.1207818053    13.3007715317
Ni      7.3668809572     4.2490234566    13.3008058444
Ni      8.5953896190     6.3767159329    13.3009510356
Ni     12.2816608155     8.5051500050    13.3006064561
Ni      8.5958456854     2.1206091639    13.3010363913
Ni      9.8244550653     4.2487038258    13.3007275536
Ni     11.0528529681     6.3769409810    13.3006612510
Cu      2.4478273934     1.4024593494    15.3768195279
Cu      3.6763308064     3.5307008763    15.3768060769
Cu      4.9041378635     5.6597275327    15.3773446705
Cu      6.1330260753     7.7878909917    15.3784795762
Cu      4.9046987935     1.4026027494    15.3777978376
Cu      6.1325026874     3.5313494179    15.3777258642
Cu      7.3610720821     5.6598451508    15.3779275454
Cu      8.5906751573     7.7868955285    15.3785352684
Cu      7.3621786350     1.4037478132    15.3762149869
Cu      8.5904727219     3.5321453649    15.3780682333
Cu      9.8190628607     5.6596863340    15.3769316566
Cu     11.0487962789     7.7874997913    15.3777155251
Cu      9.8196454140     1.4041813301    15.3774701118
Cu     11.0479045226     3.5315147301    15.3771972946
Cu     12.2765483612     5.6595853029    15.3771297580
Cu     13.5054403737     7.7883030906    15.3772812510
Cu      1.2083070098     0.6851698963    17.5672961896
Cu      2.4415111835     2.8085109318    17.5664371742
Cu      3.6663877151     4.9455222624    17.5741843985
Cu      4.8960525135     7.0757886505    17.5574124147
Cu      3.6686870578     0.6867945754    17.5683831776
Cu      4.8943478737     2.8085308160    17.6826374502
Cu      6.1009363044     4.9465409823    17.5586249628
Cu      7.3471406554     7.0926028345    17.5719576008
Cu      6.1345124246     0.6799134034    17.5700281418
Cu      7.3532551734     2.7950626148    17.5663067105
Cu      8.6043751951     4.9391935539    17.4954393350
Cu      9.8241455020     7.0856224737    17.5569545275
Cu      8.5897159945     0.6791129466    17.5530452737
Cu      9.8271576758     2.7954760086    17.5672202552
Cu     11.0657750006     4.9438247996    17.5451714496
Cu     12.2755993946     7.0705564636    17.5735176817
O       7.4405145858     4.0126776540    21.6920560085
O       8.5254251268     4.9591817356    19.3497168189
O       8.5538698383     4.9512327538    24.1323301468
C       8.5500908486     4.9137520721    21.7268146350
C       9.3853591617     4.7416638784    20.4528087345
C       9.3790842626     4.7180109678    22.9883275756
H       8.1089507994     5.9191427153    21.7148031443
H       9.8030140660     3.7110396216    20.4246370311
H      10.2507053861     5.4384457772    20.4238629299
H      10.2470589923     5.4033118836    22.9847193233
H       9.7604484928     3.6795023096    22.9878404937
H       7.8181355975     3.1139360895    21.6858752478
H       4.8378807518     2.8208217698    19.1898911057
H       9.1014664801     4.7839833017    24.9151280106
78
Step 6 | ATOMIC_POSITIONS (angstrom) | Cartesian Angstrom
Ni      1.2286497520     0.7093615510    11.2500000000
Ni      2.4572990100     2.8374462050    11.2500000000
Ni      3.6859482670     4.9655308580    11.2500000000
Ni      4.9145975240     7.0936155120    11.2500000000
Ni      3.6859497520     0.7093615510    11.2500000000
Ni      4.9145990100     2.8374462050    11.2500000000
Ni      6.1432482670     4.9655308580    11.2500000000
Ni      7.3718975240     7.0936155120    11.2500000000
Ni      6.1432497520     0.7093615510    11.2500000000
Ni      7.3718990100     2.8374462050    11.2500000000
Ni      8.6005482670     4.9655308580    11.2500000000
Ni      9.8291975240     7.0936155120    11.2500000000
Ni      8.6005497520     0.7093615510    11.2500000000
Ni      9.8291990100     2.8374462050    11.2500000000
Ni     11.0578482670     4.9655308580    11.2500000000
Ni     12.2864975240     7.0936155120    11.2500000000
Ni      4.9099156437     8.5053429943    13.3011714153
Ni     11.0531329444     2.1206495289    13.3008022987
Ni     12.2817169742     4.2489790338    13.3006009374
Ni     13.5101985337     6.3773433495    13.3009431249
Ni      7.3672568657     8.5047181049    13.3011773704
Ni      3.6813642393     2.1207834059    13.3007249916
Ni      4.9098915811     4.2493198243    13.3009122649
Ni      6.1382079689     6.3774560515    13.3011135672
Ni      9.8241033231     8.5046823230    13.3010832757
Ni      6.1383369811     2.1207818053    13.3007715317
Ni      7.3668809572     4.2490234566    13.3008058444
Ni      8.5953896190     6.3767159329    13.3009510356
Ni     12.2816608155     8.5051500050    13.3006064561
Ni      8.5958456854     2.1206091639    13.3010363913
Ni      9.8244550653     4.2487038258    13.3007275536
Ni     11.0528529681     6.3769409810    13.3006612510
Cu      2.4478273934     1.4024593494    15.3768195279
Cu      3.6763308064     3.5307008763    15.3768060769
Cu      4.9041378635     5.6597275327    15.3773446705
Cu      6.1330260753     7.7878909917    15.3784795762
Cu      4.9046987935     1.4026027494    15.3777978376
Cu      6.1325026874     3.5313494179    15.3777258642
Cu      7.3610720821     5.6598451508    15.3779275454
Cu      8.5906751573     7.7868955285    15.3785352684
Cu      7.3621786350     1.4037478132    15.3762149869
Cu      8.5904727219     3.5321453649    15.3780682333
Cu      9.8190628607     5.6596863340    15.3769316566
Cu     11.0487962789     7.7874997913    15.3777155251
Cu      9.8196454140     1.4041813301    15.3774701118
Cu     11.0479045226     3.5315147301    15.3771972946
Cu     12.2765483612     5.6595853029    15.3771297580
Cu     13.5054403737     7.7883030906    15.3772812510
Cu      1.2081483801     0.6854010100    17.5667388827
Cu      2.4426562591     2.8081023410    17.5652892273
Cu      3.6664166982     4.9457442567    17.5749596962
Cu      4.8952758664     7.0770288501    17.5535423609
Cu      3.6686155776     0.6886595909    17.5662537096
Cu      4.8948362221     2.8078871256    17.6661480095
Cu      6.1007779639     4.9468501389    17.5550285986
Cu      7.3475294211     7.0928848780    17.5737987411
Cu      6.1348636070     0.6801414247    17.5694424563
Cu      7.3536477425     2.7954296629    17.5655315175
Cu      8.6071200087     4.9382029985    17.5107575273
Cu      9.8244836731     7.0862441336    17.5542707343
Cu      8.5896477947     0.6779913429    17.5492659779
Cu      9.8279407828     2.7950318277    17.5662575533
Cu     11.0674907094     4.9440564038    17.5392303226
Cu     12.2763675698     7.0714765801    17.5746049954
O       7.4426440009     4.0115086473    21.6972951612
O       8.5310599580     4.9626635553    19.3424752571
O       8.5604751793     4.9528652507    24.1295484064
C       8.5512205546     4.9116500294    21.7242696469
C       9.3801143793     4.7428921725    20.4495584294
C       9.3814363180     4.7173460271    22.9849158884
H       8.1069107533     5.9187189625    21.7190902561
H       9.8040331008     3.7167460314    20.4245081199
H      10.2440332504     5.4347852237    20.4284932288
H      10.2452654918     5.4008039069    22.9796261590
H       9.7655987471     3.6801163170    22.9894612824
H       7.8076712048     3.1088260961    21.6861411586
H       4.8378247148     2.8223628221    19.1801961818
H       9.0968139230     4.7859382492    24.9229163418
78
Step 7 | ATOMIC_POSITIONS (angstrom) | Cartesian Angstrom
Ni      1.2286497520     0.7093615510    11.2500000000
Ni      2.4572990100     2.8374462050    11.2500000000
Ni      3.6859482670     4.9655308580    11.2500000000
Ni      4.9145975240     7.0936155120    11.2500000000
Ni      3.6859497520     0.7093615510    11.2500000000
Ni      4.9145990100     2.8374462050    11.2500000000
Ni      6.1432482670     4.9655308580    11.2500000000
Ni      7.3718975240     7.0936155120    11.2500000000
Ni      6.1432497520     0.7093615510    11.2500000000
Ni      7.3718990100     2.8374462050    11.2500000000
Ni      8.6005482670     4.9655308580    11.2500000000
Ni      9.8291975240     7.0936155120    11.2500000000
Ni      8.6005497520     0.7093615510    11.2500000000
Ni      9.8291990100     2.8374462050    11.2500000000
Ni     11.0578482670     4.9655308580    11.2500000000
Ni     12.2864975240     7.0936155120    11.2500000000
Ni      4.9099156437     8.5053429943    13.3011714153
Ni     11.0531329444     2.1206495289    13.3008022987
Ni     12.2817169742     4.2489790338    13.3006009374
Ni     13.5101985337     6.3773433495    13.3009431249
Ni      7.3672568657     8.5047181049    13.3011773704
Ni      3.6813642393     2.1207834059    13.3007249916
Ni      4.9098915811     4.2493198243    13.3009122649
Ni      6.1382079689     6.3774560515    13.3011135672
Ni      9.8241033231     8.5046823230    13.3010832757
Ni      6.1383369811     2.1207818053    13.3007715317
Ni      7.3668809572     4.2490234566    13.3008058444
Ni      8.5953896190     6.3767159329    13.3009510356
Ni     12.2816608155     8.5051500050    13.3006064561
Ni      8.5958456854     2.1206091639    13.3010363913
Ni      9.8244550653     4.2487038258    13.3007275536
Ni     11.0528529681     6.3769409810    13.3006612510
Cu      2.4478273934     1.4024593494    15.3768195279
Cu      3.6763308064     3.5307008763    15.3768060769
Cu      4.9041378635     5.6597275327    15.3773446705
Cu      6.1330260753     7.7878909917    15.3784795762
Cu      4.9046987935     1.4026027494    15.3777978376
Cu      6.1325026874     3.5313494179    15.3777258642
Cu      7.3610720821     5.6598451508    15.3779275454
Cu      8.5906751573     7.7868955285    15.3785352684
Cu      7.3621786350     1.4037478132    15.3762149869
Cu      8.5904727219     3.5321453649    15.3780682333
Cu      9.8190628607     5.6596863340    15.3769316566
Cu     11.0487962789     7.7874997913    15.3777155251
Cu      9.8196454140     1.4041813301    15.3774701118
Cu     11.0479045226     3.5315147301    15.3771972946
Cu     12.2765483612     5.6595853029    15.3771297580
Cu     13.5054403737     7.7883030906    15.3772812510
Cu      1.2079733186     0.6855921946    17.5662094406
Cu      2.4435924227     2.8078156468    17.5641751253
Cu      3.6665630156     4.9461787820    17.5760984390
Cu      4.8947597262     7.0781453002    17.5492084436
Cu      3.6684938581     0.6901593496    17.5640047771
Cu      4.8954189946     2.8074643108    17.6514621746
Cu      6.1002044122     4.9474001415    17.5507789649
Cu      7.3476975602     7.0937523587    17.5755356275
Cu      6.1353733718     0.6802621541    17.5690063711
Cu      7.3540391606     2.7952849463    17.5643763584
Cu      8.6103126013     4.9370971084    17.5171628173
Cu      9.8250881097     7.0873790693    17.5509390592
Cu      8.5896236759     0.6772095891    17.5450242384
Cu      9.8291526764     2.7940182349    17.5648743259
Cu     11.0697890771     4.9443207112    17.5323217690
Cu     12.2770114246     7.0722854304    17.5758626821
O       7.4402612565     4.0109345388    21.7022281924
O       8.5345442753     4.9670164533    19.3439191141
O       8.5652308209     4.9554883456    24.1297995873
C       8.5494512936     4.9091665527    21.7238755924
C       9.3762657891     4.7435851808    20.4477142883
C       9.3848615005     4.7151845203    22.9832476532
H       8.1055076913     5.9161857379    21.7235522636
H       9.8051287501     3.7207595120    20.4239930348
H      10.2398610454     5.4339748494    20.4332774543
H      10.2472583702     5.4006739864    22.9731509742
H       9.7717077627     3.6797861032    22.9899125971
H       7.7977533898     3.1027754578    21.6864863100
H       4.8378330543     2.8241576054    19.1650214095
H       9.0913048077     4.7882945932    24.9274152338
78
Step 8 | ATOMIC_POSITIONS (angstrom) | Cartesian Angstrom
Ni      1.2286497520     0.7093615510    11.2500000000
Ni      2.4572990100     2.8374462050    11.2500000000
Ni      3.6859482670     4.9655308580    11.2500000000
Ni      4.9145975240     7.0936155120    11.2500000000
Ni      3.6859497520     0.7093615510    11.2500000000
Ni      4.9145990100     2.8374462050    11.2500000000
Ni      6.1432482670     4.9655308580    11.2500000000
Ni      7.3718975240     7.0936155120    11.2500000000
Ni      6.1432497520     0.7093615510    11.2500000000
Ni      7.3718990100     2.8374462050    11.2500000000
Ni      8.6005482670     4.9655308580    11.2500000000
Ni      9.8291975240     7.0936155120    11.2500000000
Ni      8.6005497520     0.7093615510    11.2500000000
Ni      9.8291990100     2.8374462050    11.2500000000
Ni     11.0578482670     4.9655308580    11.2500000000
Ni     12.2864975240     7.0936155120    11.2500000000
Ni      4.9099156437     8.5053429943    13.3011714153
Ni     11.0531329444     2.1206495289    13.3008022987
Ni     12.2817169742     4.2489790338    13.3006009374
Ni     13.5101985337     6.3773433495    13.3009431249
Ni      7.3672568657     8.5047181049    13.3011773704
Ni      3.6813642393     2.1207834059    13.3007249916
Ni      4.9098915811     4.2493198243    13.3009122649
Ni      6.1382079689     6.3774560515    13.3011135672
Ni      9.8241033231     8.5046823230    13.3010832757
Ni      6.1383369811     2.1207818053    13.3007715317
Ni      7.3668809572     4.2490234566    13.3008058444
Ni      8.5953896190     6.3767159329    13.3009510356
Ni     12.2816608155     8.5051500050    13.3006064561
Ni      8.5958456854     2.1206091639    13.3010363913
Ni      9.8244550653     4.2487038258    13.3007275536
Ni     11.0528529681     6.3769409810    13.3006612510
Cu      2.4478273934     1.4024593494    15.3768195279
Cu      3.6763308064     3.5307008763    15.3768060769
Cu      4.9041378635     5.6597275327    15.3773446705
Cu      6.1330260753     7.7878909917    15.3784795762
Cu      4.9046987935     1.4026027494    15.3777978376
Cu      6.1325026874     3.5313494179    15.3777258642
Cu      7.3610720821     5.6598451508    15.3779275454
Cu      8.5906751573     7.7868955285    15.3785352684
Cu      7.3621786350     1.4037478132    15.3762149869
Cu      8.5904727219     3.5321453649    15.3780682333
Cu      9.8190628607     5.6596863340    15.3769316566
Cu     11.0487962789     7.7874997913    15.3777155251
Cu      9.8196454140     1.4041813301    15.3774701118
Cu     11.0479045226     3.5315147301    15.3771972946
Cu     12.2765483612     5.6595853029    15.3771297580
Cu     13.5054403737     7.7883030906    15.3772812510
Cu      1.2079009324     0.6857293212    17.5657198790
Cu      2.4444728162     2.8076647977    17.5630520483
Cu      3.6668949042     4.9466600743    17.5774873445
Cu      4.8944508563     7.0791097237    17.5445891690
Cu      3.6683991575     0.6914001349    17.5616151279
Cu      4.8961908492     2.8072324361    17.6346729084
Cu      6.0999310497     4.9480481104    17.5461051196
Cu      7.3479375500     7.0945746836    17.5773294061
Cu      6.1359346804     0.6803801151    17.5686463485
Cu      7.3545860908     2.7952102786    17.5630149894
Cu      8.6134564955     4.9359469254    17.5207849711
Cu      9.8257084006     7.0885450639    17.5472602465
Cu      8.5895848991     0.6767388782    17.5404927842
Cu      9.8304681180     2.7929652796    17.5633046856
Cu     11.0721083997     4.9445887550    17.5248674273
Cu     12.2775731796     7.0730304503    17.5773010514
O       7.4362141050     4.0092678428    21.7070823321
O       8.5363352309     4.9721102135    19.3469064214
O       8.5686726811     4.9587259691    24.1284600989
C       8.5475525426     4.9050156990    21.7251955253
C       9.3736129810     4.7444068053    20.4483639341
C       9.3884094073     4.7139330150    22.9824276332
H       8.1037607150     5.9135580447    21.7283661228
H       9.8061408233     3.7235647787    20.4228685393
H      10.2363781615     5.4345605702    20.4384181731
H      10.2502306613     5.4009792558    22.9659462858
H       9.7783968081     3.6786120848    22.9903237751
H       7.7873103216     3.0976510109    21.6869243284
H       4.8377852401     2.8262181516    19.1486323542
H       9.0868649233     4.7904181871    24.9321670752
78
Step 9 | ATOMIC_POSITIONS (angstrom) | Cartesian Angstrom
Ni      1.2286497520     0.7093615510    11.2500000000
Ni      2.4572990100     2.8374462050    11.2500000000
Ni      3.6859482670     4.9655308580    11.2500000000
Ni      4.9145975240     7.0936155120    11.2500000000
Ni      3.6859497520     0.7093615510    11.2500000000
Ni      4.9145990100     2.8374462050    11.2500000000
Ni      6.1432482670     4.9655308580    11.2500000000
Ni      7.3718975240     7.0936155120    11.2500000000
Ni      6.1432497520     0.7093615510    11.2500000000
Ni      7.3718990100     2.8374462050    11.2500000000
Ni      8.6005482670     4.9655308580    11.2500000000
Ni      9.8291975240     7.0936155120    11.2500000000
Ni      8.6005497520     0.7093615510    11.2500000000
Ni      9.8291990100     2.8374462050    11.2500000000
Ni     11.0578482670     4.9655308580    11.2500000000
Ni     12.2864975240     7.0936155120    11.2500000000
Ni      4.9099156437     8.5053429943    13.3011714153
Ni     11.0531329444     2.1206495289    13.3008022987
Ni     12.2817169742     4.2489790338    13.3006009374
Ni     13.5101985337     6.3773433495    13.3009431249
Ni      7.3672568657     8.5047181049    13.3011773704
Ni      3.6813642393     2.1207834059    13.3007249916
Ni      4.9098915811     4.2493198243    13.3009122649
Ni      6.1382079689     6.3774560515    13.3011135672
Ni      9.8241033231     8.5046823230    13.3010832757
Ni      6.1383369811     2.1207818053    13.3007715317
Ni      7.3668809572     4.2490234566    13.3008058444
Ni      8.5953896190     6.3767159329    13.3009510356
Ni     12.2816608155     8.5051500050    13.3006064561
Ni      8.5958456854     2.1206091639    13.3010363913
Ni      9.8244550653     4.2487038258    13.3007275536
Ni     11.0528529681     6.3769409810    13.3006612510
Cu      2.4478273934     1.4024593494    15.3768195279
Cu      3.6763308064     3.5307008763    15.3768060769
Cu      4.9041378635     5.6597275327    15.3773446705
Cu      6.1330260753     7.7878909917    15.3784795762
Cu      4.9046987935     1.4026027494    15.3777978376
Cu      6.1325026874     3.5313494179    15.3777258642
Cu      7.3610720821     5.6598451508    15.3779275454
Cu      8.5906751573     7.7868955285    15.3785352684
Cu      7.3621786350     1.4037478132    15.3762149869
Cu      8.5904727219     3.5321453649    15.3780682333
Cu      9.8190628607     5.6596863340    15.3769316566
Cu     11.0487962789     7.7874997913    15.3777155251
Cu      9.8196454140     1.4041813301    15.3774701118
Cu     11.0479045226     3.5315147301    15.3771972946
Cu     12.2765483612     5.6595853029    15.3771297580
Cu     13.5054403737     7.7883030906    15.3772812510
Cu      1.2079699151     0.6858223870    17.5651507382
Cu      2.4456061776     2.8076469933    17.5615963622
Cu      3.6676223643     4.9473514448    17.5797458574
Cu      4.8943122430     7.0802038772    17.5380902582
Cu      3.6683317071     0.6927136209    17.5582760483
Cu      4.8974656788     2.8071884510    17.6094922990
Cu      6.1001161241     4.9490338713    17.5393964223
Cu      7.3484251164     7.0955141685    17.5798937974
Cu      6.1367430868     0.6805486351    17.5683167565
Cu      7.3555849463     2.7953056307    17.5610181304
Cu      8.6175226057     4.9343854596    17.5235588718
Cu      9.8265126733     7.0900193794    17.5419769250
Cu      8.5895358030     0.6765086416    17.5341012356
Cu      9.8323301635     2.7916089704    17.5610344233
Cu     11.0751131056     4.9449522684    17.5143068244
Cu     12.2782465703     7.0739413748    17.5795077338
O       7.4297838957     4.0058213784    21.7137253813
O       8.5369905331     4.9799179129    19.3519546892
O       8.5736393244     4.9633724301    24.1277170342
C       8.5444118545     4.8991526457    21.7285908430
C       9.3707311127     4.7452549857    20.4514253431
C       9.3934902412     4.7120041591    22.9820370293
H       8.1013506391     5.9088339878    21.7354268924
H       9.8073720213     3.7261162782    20.4206078363
H      10.2323730170     5.4369737080    20.4461684682
H      10.2549138225     5.4017053845    22.9554613254
H       9.7877610552     3.6770517173    22.9912225691
H       7.7724136098     3.0917715364    21.6876705890
H       4.8376234940     2.8293722157    19.1248747997
H       9.0806019452     4.7935105716    24.9364560095
78
Step 10 | ATOMIC_POSITIONS (angstrom) | Cartesian Angstrom
Ni      1.2286497520     0.7093615510    11.2500000000
Ni      2.4572990100     2.8374462050    11.2500000000
Ni      3.6859482670     4.9655308580    11.2500000000
Ni      4.9145975240     7.0936155120    11.2500000000
Ni      3.6859497520     0.7093615510    11.2500000000
Ni      4.9145990100     2.8374462050    11.2500000000
Ni      6.1432482670     4.9655308580    11.2500000000
Ni      7.3718975240     7.0936155120    11.2500000000
Ni      6.1432497520     0.7093615510    11.2500000000
Ni      7.3718990100     2.8374462050    11.2500000000
Ni      8.6005482670     4.9655308580    11.2500000000
Ni      9.8291975240     7.0936155120    11.2500000000
Ni      8.6005497520     0.7093615510    11.2500000000
Ni      9.8291990100     2.8374462050    11.2500000000
Ni     11.0578482670     4.9655308580    11.2500000000
Ni     12.2864975240     7.0936155120    11.2500000000
Ni      4.9099156437     8.5053429943    13.3011714153
Ni     11.0531329444     2.1206495289    13.3008022987
Ni     12.2817169742     4.2489790338    13.3006009374
Ni     13.5101985337     6.3773433495    13.3009431249
Ni      7.3672568657     8.5047181049    13.3011773704
Ni      3.6813642393     2.1207834059    13.3007249916
Ni      4.9098915811     4.2493198243    13.3009122649
Ni      6.1382079689     6.3774560515    13.3011135672
Ni      9.8241033231     8.5046823230    13.3010832757
Ni      6.1383369811     2.1207818053    13.3007715317
Ni      7.3668809572     4.2490234566    13.3008058444
Ni      8.5953896190     6.3767159329    13.3009510356
Ni     12.2816608155     8.5051500050    13.3006064561
Ni      8.5958456854     2.1206091639    13.3010363913
Ni      9.8244550653     4.2487038258    13.3007275536
Ni     11.0528529681     6.3769409810    13.3006612510
Cu      2.4478273934     1.4024593494    15.3768195279
Cu      3.6763308064     3.5307008763    15.3768060769
Cu      4.9041378635     5.6597275327    15.3773446705
Cu      6.1330260753     7.7878909917    15.3784795762
Cu      4.9046987935     1.4026027494    15.3777978376
Cu      6.1325026874     3.5313494179    15.3777258642
Cu      7.3610720821     5.6598451508    15.3779275454
Cu      8.5906751573     7.7868955285    15.3785352684
Cu      7.3621786350     1.4037478132    15.3762149869
Cu      8.5904727219     3.5321453649    15.3780682333
Cu      9.8190628607     5.6596863340    15.3769316566
Cu     11.0487962789     7.7874997913    15.3777155251
Cu      9.8196454140     1.4041813301    15.3774701118
Cu     11.0479045226     3.5315147301    15.3771972946
Cu     12.2765483612     5.6595853029    15.3771297580
Cu     13.5054403737     7.7883030906    15.3772812510
Cu      1.2083403680     0.6857801175    17.5645113432
Cu      2.4471153353     2.8079062760    17.5597513487
Cu      3.6691084719     4.9483696917    17.5835260056
Cu      4.8945511513     7.0814139021    17.5287827433
Cu      3.6683674211     0.6939645669    17.5535553910
Cu      4.8995510642     2.8075601043    17.5717323198
Cu      6.1013104858     4.9505604787    17.5296522187
Cu      7.3493941814     7.0965187916    17.5836868097
Cu      6.1379363372     0.6808142117    17.5681538865
Cu      7.3574089705     2.7957796969    17.5580957250
Cu      8.6227884256     4.9322733272    17.5256531658
Cu      9.8275569502     7.0917806843    17.5343038550
Cu      8.5895295877     0.6767790681    17.5249190682
Cu      9.8350359350     2.7899074683    17.5577049211
Cu     11.0789670176     4.9454615352    17.4991910947
Cu     12.2791001046     7.0750400945    17.5829645774
O       7.4196727104     4.0017630552    21.7233017010
O       8.5354776843     4.9921870032    19.3594260560
O       8.5792740763     4.9709035673    24.1241554980
C       8.5394740416     4.8900293498    21.7353914647
C       9.3676547448     4.7460894072    20.4576686360
C       9.4005038678     4.7091973641    22.9830161137
H       8.0977314627     5.9005694664    21.7462131079
H       9.8086472901     3.7284722653    20.4165142910
H      10.2272101227     5.4421178124    20.4585458154
H      10.2616436503     5.4026755488    22.9399482039
H       9.8010438804     3.6752429431    22.9932790724
H       7.7513401541     3.0832775766    21.6888881030
H       4.8372144141     2.8343768626    19.0886014313
H       9.0741488201     4.7972788263    24.9428310916
78
Step 11 | ATOMIC_POSITIONS (angstrom) | Cartesian Angstrom
Ni      1.2286497520     0.7093615510    11.2500000000
Ni      2.4572990100     2.8374462050    11.2500000000
Ni      3.6859482670     4.9655308580    11.2500000000
Ni      4.9145975240     7.0936155120    11.2500000000
Ni      3.6859497520     0.7093615510    11.2500000000
Ni      4.9145990100     2.8374462050    11.2500000000
Ni      6.1432482670     4.9655308580    11.2500000000
Ni      7.3718975240     7.0936155120    11.2500000000
Ni      6.1432497520     0.7093615510    11.2500000000
Ni      7.3718990100     2.8374462050    11.2500000000
Ni      8.6005482670     4.9655308580    11.2500000000
Ni      9.8291975240     7.0936155120    11.2500000000
Ni      8.6005497520     0.7093615510    11.2500000000
Ni      9.8291990100     2.8374462050    11.2500000000
Ni     11.0578482670     4.9655308580    11.2500000000
Ni     12.2864975240     7.0936155120    11.2500000000
Ni      4.9099156437     8.5053429943    13.3011714153
Ni     11.0531329444     2.1206495289    13.3008022987
Ni     12.2817169742     4.2489790338    13.3006009374
Ni     13.5101985337     6.3773433495    13.3009431249
Ni      7.3672568657     8.5047181049    13.3011773704
Ni      3.6813642393     2.1207834059    13.3007249916
Ni      4.9098915811     4.2493198243    13.3009122649
Ni      6.1382079689     6.3774560515    13.3011135672
Ni      9.8241033231     8.5046823230    13.3010832757
Ni      6.1383369811     2.1207818053    13.3007715317
Ni      7.3668809572     4.2490234566    13.3008058444
Ni      8.5953896190     6.3767159329    13.3009510356
Ni     12.2816608155     8.5051500050    13.3006064561
Ni      8.5958456854     2.1206091639    13.3010363913
Ni      9.8244550653     4.2487038258    13.3007275536
Ni     11.0528529681     6.3769409810    13.3006612510
Cu      2.4478273934     1.4024593494    15.3768195279
Cu      3.6763308064     3.5307008763    15.3768060769
Cu      4.9041378635     5.6597275327    15.3773446705
Cu      6.1330260753     7.7878909917    15.3784795762
Cu      4.9046987935     1.4026027494    15.3777978376
Cu      6.1325026874     3.5313494179    15.3777258642
Cu      7.3610720821     5.6598451508    15.3779275454
Cu      8.5906751573     7.7868955285    15.3785352684
Cu      7.3621786350     1.4037478132    15.3762149869
Cu      8.5904727219     3.5321453649    15.3780682333
Cu      9.8190628607     5.6596863340    15.3769316566
Cu     11.0487962789     7.7874997913    15.3777155251
Cu      9.8196454140     1.4041813301    15.3774701118
Cu     11.0479045226     3.5315147301    15.3771972946
Cu     12.2765483612     5.6595853029    15.3771297580
Cu     13.5054403737     7.7883030906    15.3772812510
Cu      1.2091640234     0.6854298526    17.5643245130
Cu      2.4482603811     2.8086099310    17.5586795013
Cu      3.6711530635     4.9491995630    17.5876363280
Cu      4.8954878801     7.0818089997    17.5212411313
Cu      3.6686921698     0.6939727695    17.5498050497
Cu      4.9017361479     2.8086005613    17.5369944507
Cu      6.1040684087     4.9519625652    17.5215379535
Cu      7.3507372504     7.0966400579    17.5871191050
Cu      6.1389546931     0.6811234642    17.5685867815
Cu      7.3596139698     2.7968650906    17.5556426255
Cu      8.6261057525     4.9307916064    17.5254239818
Cu      9.8282167472     7.0924828457    17.5279593173
Cu      8.5896658925     0.6779876169    17.5174202558
Cu      9.8372983203     2.7890621189    17.5548955043
Cu     11.0812418798     4.9458531334    17.4870593564
Cu     12.2796692726     7.0755970294    17.5863558710
O       7.4108137416     3.9963674747    21.7314915768
O       8.5312465613     5.0039265547    19.3664240885
O       8.5849868117     4.9774052559    24.1246082757
C       8.5360199669     4.8812268874    21.7429770958
C       9.3658487355     4.7467031893    20.4650157547
C       9.4058436635     4.7074316184    22.9842962582
H       8.0942503840     5.8919810321    21.7565173902
H       9.8085763955     3.7286092245    20.4114334613
H      10.2230971852     5.4486474369    20.4710324230
H      10.2667790225     5.4030887112    22.9266087069
H       9.8117766446     3.6739748557    22.9968807017
H       7.7332278507     3.0789536725    21.6902325823
H       4.8364748589     2.8394569814    19.0555993888
H       9.0695367990     4.8005163037    24.9428884425
78
Step 12 | ATOMIC_POSITIONS (angstrom) | Cartesian Angstrom
Ni      1.2286497520     0.7093615510    11.2500000000
Ni      2.4572990100     2.8374462050    11.2500000000
Ni      3.6859482670     4.9655308580    11.2500000000
Ni      4.9145975240     7.0936155120    11.2500000000
Ni      3.6859497520     0.7093615510    11.2500000000
Ni      4.9145990100     2.8374462050    11.2500000000
Ni      6.1432482670     4.9655308580    11.2500000000
Ni      7.3718975240     7.0936155120    11.2500000000
Ni      6.1432497520     0.7093615510    11.2500000000
Ni      7.3718990100     2.8374462050    11.2500000000
Ni      8.6005482670     4.9655308580    11.2500000000
Ni      9.8291975240     7.0936155120    11.2500000000
Ni      8.6005497520     0.7093615510    11.2500000000
Ni      9.8291990100     2.8374462050    11.2500000000
Ni     11.0578482670     4.9655308580    11.2500000000
Ni     12.2864975240     7.0936155120    11.2500000000
Ni      4.9099156437     8.5053429943    13.3011714153
Ni     11.0531329444     2.1206495289    13.3008022987
Ni     12.2817169742     4.2489790338    13.3006009374
Ni     13.5101985337     6.3773433495    13.3009431249
Ni      7.3672568657     8.5047181049    13.3011773704
Ni      3.6813642393     2.1207834059    13.3007249916
Ni      4.9098915811     4.2493198243    13.3009122649
Ni      6.1382079689     6.3774560515    13.3011135672
Ni      9.8241033231     8.5046823230    13.3010832757
Ni      6.1383369811     2.1207818053    13.3007715317
Ni      7.3668809572     4.2490234566    13.3008058444
Ni      8.5953896190     6.3767159329    13.3009510356
Ni     12.2816608155     8.5051500050    13.3006064561
Ni      8.5958456854     2.1206091639    13.3010363913
Ni      9.8244550653     4.2487038258    13.3007275536
Ni     11.0528529681     6.3769409810    13.3006612510
Cu      2.4478273934     1.4024593494    15.3768195279
Cu      3.6763308064     3.5307008763    15.3768060769
Cu      4.9041378635     5.6597275327    15.3773446705
Cu      6.1330260753     7.7878909917    15.3784795762
Cu      4.9046987935     1.4026027494    15.3777978376
Cu      6.1325026874     3.5313494179    15.3777258642
Cu      7.3610720821     5.6598451508    15.3779275454
Cu      8.5906751573     7.7868955285    15.3785352684
Cu      7.3621786350     1.4037478132    15.3762149869
Cu      8.5904727219     3.5321453649    15.3780682333
Cu      9.8190628607     5.6596863340    15.3769316566
Cu     11.0487962789     7.7874997913    15.3777155251
Cu      9.8196454140     1.4041813301    15.3774701118
Cu     11.0479045226     3.5315147301    15.3771972946
Cu     12.2765483612     5.6595853029    15.3771297580
Cu     13.5054403737     7.7883030906    15.3772812510
Cu      1.2098541976     0.6850378195    17.5647068607
Cu      2.4483904690     2.8092017977    17.5591129519
Cu      3.6723436172     4.9493018780    17.5894093145
Cu      4.8963911771     7.0812780172    17.5204406966
Cu      3.6691086478     0.6929437286    17.5495159172
Cu      4.9025180842     2.8094981714    17.5290508460
Cu      6.1063535614     4.9522949742    17.5204773651
Cu      7.3515385381     7.0959338260    17.5880118603
Cu      6.1391431039     0.6812801782    17.5693475930
Cu      7.3606792261     2.7977302683    17.5553493192
Cu      8.6254598541     4.9309186880    17.5242157528
Cu      9.8281434399     7.0917245092    17.5271839237
Cu      8.5899102551     0.6791147134    17.5165517358
Cu      9.8377001715     2.7895618955    17.5544883286
Cu     11.0806120506     4.9458824741    17.4859877318
Cu     12.2796841418     7.0753047922    17.5874466479
O       7.4089702581     3.9967497913    21.7333363845
O       8.5279827549     5.0073660842    19.3684207883
O       8.5844528802     4.9798031986    24.1224212846
C       8.5350781375     4.8793694975    21.7456286375
C       9.3658207408     4.7465020014    20.4671502656
C       9.4059162345     4.7066857464    22.9861628687
H       8.0934139602     5.8882432312    21.7596244326
H       9.8071471791     3.7274853998    20.4088961595
H      10.2222123628     5.4515363590    20.4754958551
H      10.2668240891     5.4027624599    22.9242657877
H       9.8127781544     3.6746610435    22.9997592973
H       7.7308489369     3.0780993154    21.6906776760
H       4.8358525829     2.8413408925    19.0468327284
H       9.0730670758     4.7999326321    24.9424509592
