78
First NEB image (Cartesian Angstrom)
Ni      1.2286497500     0.7093615500    11.2500000000
Ni      2.4572990100     2.8374462000    11.2500000000
Ni      3.6859482700     4.9655308600    11.2500000000
Ni      4.9145975200     7.0936155100    11.2500000000
Ni      3.6859497500     0.7093615500    11.2500000000
Ni      4.9145990100     2.8374462000    11.2500000000
Ni      6.1432482700     4.9655308600    11.2500000000
Ni      7.3718975200     7.0936155100    11.2500000000
Ni      6.1432497500     0.7093615500    11.2500000000
Ni      7.3718990100     2.8374462000    11.2500000000
Ni      8.6005482700     4.9655308600    11.2500000000
Ni      9.8291975200     7.0936155100    11.2500000000
Ni      8.6005497500     0.7093615500    11.2500000000
Ni      9.8291990100     2.8374462000    11.2500000000
Ni     11.0578482700     4.9655308600    11.2500000000
Ni     12.2864975200     7.0936155100    11.2500000000
Ni      4.9099156400     8.5053429900    13.3011714200
Ni     11.0531329400     2.1206495300    13.3008023000
Ni     12.2817169700     4.2489790300    13.3006009400
Ni     13.5101985300     6.3773433500    13.3009431200
Ni      7.3672568700     8.5047181000    13.3011773700
Ni      3.6813642400     2.1207834100    13.3007249900
Ni      4.9098915800     4.2493198200    13.3009122600
Ni      6.1382079700     6.3774560500    13.3011135700
Ni      9.8241033200     8.5046823200    13.3010832800
Ni      6.1383369800     2.1207818100    13.3007715300
Ni      7.3668809600     4.2490234600    13.3008058400
Ni      8.5953896200     6.3767159300    13.3009510400
Ni     12.2816608200     8.5051500100    13.3006064600
Ni      8.5958456900     2.1206091600    13.3010363900
Ni      9.8244550700     4.2487038300    13.3007275500
Ni     11.0528529700     6.3769409800    13.3006612500
Cu      2.4478273900     1.4024593500    15.3768195300
Cu      3.6763308100     3.5307008800    15.3768060800
Cu      4.9041378600     5.6597275300    15.3773446700
Cu      6.1330260800     7.7878909900    15.3784795800
Cu      4.9046987900     1.4026027500    15.3777978400
Cu      6.1325026900     3.5313494200    15.3777258600
Cu      7.3610720800     5.6598451500    15.3779275500
Cu      8.5906751600     7.7868955300    15.3785352700
Cu      7.3621786400     1.4037478100    15.3762149900
Cu      8.5904727200     3.5321453600    15.3780682300
Cu      9.8190628600     5.6596863300    15.3769316600
Cu     11.0487962800     7.7874997900    15.3777155300
Cu      9.8196454100     1.4041813300    15.3774701100
Cu     11.0479045200     3.5315147300    15.3771972900
Cu     12.2765483600     5.6595853000    15.3771297600
Cu     13.5054403700     7.7883030900    15.3772812500
Cu      1.2073158107     0.6908062346    17.6329387727
Cu      2.4364846069     2.8171126571    17.5845635736
Cu      3.6639930612     4.9470417242    17.6187670995
Cu      4.8943286894     7.0736880365    17.5921486055
Cu      3.6657350972     0.6894942660    17.5918695548
Cu      4.8951262882     2.8177996041    17.6013074239
Cu      6.1125636058     4.9436023995    17.5182479620
Cu      7.3482618595     7.0820245465    17.5445295341
Cu      6.1252682489     0.6890795828    17.6247603970
Cu      7.3498493541     2.8151147847    17.5461290084
Cu      8.5831024956     4.9455552544    17.8304240917
Cu      9.8128226207     7.0767077971    17.5477122368
Cu      8.5805613277     0.6920225323    17.5865832926
Cu      9.8109972709     2.8180874294    17.5578443120
Cu     11.0362041583     4.9450422362    17.5552065070
Cu     12.2648228075     7.0734950716    17.5851163785
O       7.4433408135     3.9145767784    22.3531216137
O       8.1735420000     5.0981055595    20.0273030423
O       8.9238007789     4.7548818062    24.7471291471
C       8.5485896069     4.8384425823    22.3875241496
C       9.2017721747     4.8791277487    21.0090027027
C       9.5524041217     4.5358407159    23.4840777040
H       8.0830188075     5.8144030613    22.5911268170
H       9.7383955679     3.9374398953    20.7894377217
H       9.9110730691     5.7111315391    20.9095586661
H      10.4303924059     5.1946440277    23.3491133879
H       9.9033229493     3.4893538123    23.3828705500
H       7.7926720793     3.0099143326    22.4469046741
H       7.4190530385     4.5197265399    20.2776347389
H       9.5693246798     4.5791894681    25.4505789095
