78
Last NEB image (Cartesian Angstrom)
Ni      1.2286497500     0.7093615500    11.2500000000
Ni      2.4572990100     2.8374462000    11.2500000000
Ni      3.6859482700     4.9655308600    11.2500000000
Ni      4.9145975200     7.0936155100    11.2500000000
Ni      3.6859497500     0.7093615500    11.2500000000
Ni      4.9145990100     2.8374462000    11.2500000000
Ni      6.1432482700     4.9655308600    11.2500000000
Ni      7.3718975200     7.0936155100    11.2500000000
Ni      6.1432497500     0.7093615500    11.2500000000
Ni      7.3718990100     2.8374462000    11.2500000000
Ni      8.6005482700     4.9655308600    11.2500000000
Ni      9.8291975200     7.0936155100    11.2500000000
Ni      8.6005497500     0.7093615500    11.2500000000
Ni      9.8291990100     2.8374462000    11.2500000000
Ni     11.0578482700     4.9655308600    11.2500000000
Ni     12.2864975200     7.0936155100    11.2500000000
Ni      4.9099156400     8.5053429900    13.3011714200
Ni     11.0531329400     2.1206495300    13.3008023000
Ni     12.2817169700     4.2489790300    13.3006009400
Ni     13.5101985300     6.3773433500    13.3009431200
Ni      7.3672568700     8.5047181000    13.3011773700
Ni      3.6813642400     2.1207834100    13.3007249900
Ni      4.9098915800     4.2493198200    13.3009122600
Ni      6.1382079700     6.3774560500    13.3011135700
Ni      9.8241033200     8.5046823200    13.3010832800
Ni      6.1383369800     2.1207818100    13.3007715300
Ni      7.3668809600     4.2490234600    13.3008058400
Ni      8.5953896200     6.3767159300    13.3009510400
Ni     12.2816608200     8.5051500100    13.3006064600
Ni      8.5958456900     2.1206091600    13.3010363900
Ni      9.8244550700     4.2487038300    13.3007275500
Ni     11.0528529700     6.3769409800    13.3006612500
Cu      2.4478273900     1.4024593500    15.3768195300
Cu      3.6763308100     3.5307008800    15.3768060800
Cu      4.9041378600     5.6597275300    15.3773446700
Cu      6.1330260800     7.7878909900    15.3784795800
Cu      4.9046987900     1.4026027500    15.3777978400
Cu      6.1325026900     3.5313494200    15.3777258600
Cu      7.3610720800     5.6598451500    15.3779275500
Cu      8.5906751600     7.7868955300    15.3785352700
Cu      7.3621786400     1.4037478100    15.3762149900
Cu      8.5904727200     3.5321453600    15.3780682300
Cu      9.8190628600     5.6596863300    15.3769316600
Cu     11.0487962800     7.7874997900    15.3777155300
Cu      9.8196454100     1.4041813300    15.3774701100
Cu     11.0479045200     3.5315147300    15.3771972900
Cu     12.2765483600     5.6595853000    15.3771297600
Cu     13.5054403700     7.7883030900    15.3772812500
Cu      1.2065243381     0.6900126233    17.5802298407
Cu      2.4247639963     2.8015373814    17.5704871316
Cu      3.6650743903     4.9453996505    17.6523046228
Cu      4.8910209366     7.1020877461    17.5257717562
Cu      3.6813719835     0.7216851516    17.5238191633
Cu      4.9015951593     2.8078187777    17.6530821823
Cu      6.0953172302     4.9287735968    17.5389229398
Cu      7.2888413389     7.1024171631    17.6329467752
Cu      6.1371396454     0.6960198951    17.5270618247
Cu      7.3760017844     2.7915654914    17.5200120126
Cu      8.5867723098     4.8659622517    17.6276366499
Cu      9.8911059061     7.1125368955    17.6563962955
Cu      8.5829012815     0.6855730445    17.5794045070
Cu      9.8180672026     2.7992491945    17.5726900780
Cu     11.0814345962     4.9309971782    17.5267977048
Cu     12.2849373817     7.0730168845    17.5182002944
O       8.3981273261     3.9473824594    20.5435909979
O       8.5965213910     6.3583510118    18.9815108221
O       6.7459084215     4.0871188592    22.7795644513
C       7.7468125717     5.1643530887    20.9214458268
C       8.6018091205     6.3128014670    20.4138974413
C       7.5496648244     5.2252967596    22.4294473042
H       6.7542811660     5.2267788780    20.4317009648
H       9.6424123407     6.1777053606    20.7505592680
H       8.2164903744     7.2726734779    20.7934767643
H       7.0425658218     6.1676572228    22.7024759301
H       8.5319198426     5.1855390655    22.9324235522
H       7.8525899058     3.2108784992    20.8767864607
H       4.9264160746     4.2442081609    18.6059375512
H       6.7427305267     3.9924677966    23.7449565110
