78
Step 1 | NEB Image 1 | Cartesian Angstrom
Ni      1.2286497500     0.7093615500    11.2500000000
Ni      2.4572990100     2.8374462000    11.2500000000
Ni      3.6859482700     4.9655308600    11.2500000000
Ni      4.9145975200     7.0936155100    11.2500000000
Ni      3.6859497500     0.7093615500    11.2500000000
Ni      4.9145990100     2.8374462000    11.2500000000
Ni      6.1432482700     4.9655308600    11.2500000000
Ni      7.3718975200     7.0936155100    11.2500000000
Ni      6.1432497500     0.7093615500    11.2500000000
Ni      7.3718990100     2.8374462000    11.2500000000
Ni      8.6005482700     4.9655308600    11.2500000000
Ni      9.8291975200     7.0936155100    11.2500000000
Ni      8.6005497500     0.7093615500    11.2500000000
Ni      9.8291990100     2.8374462000    11.2500000000
Ni     11.0578482700     4.9655308600    11.2500000000
Ni     12.2864975200     7.0936155100    11.2500000000
Ni      4.9099156400     8.5053429900    13.3011714200
Ni     11.0531329400     2.1206495300    13.3008023000
Ni     12.2817169700     4.2489790300    13.3006009400
Ni     13.5101985300     6.3773433500    13.3009431200
Ni      7.3672568700     8.5047181000    13.3011773700
Ni      3.6813642400     2.1207834100    13.3007249900
Ni      4.9098915800     4.2493198200    13.3009122600
Ni      6.1382079700     6.3774560500    13.3011135700
Ni      9.8241033200     8.5046823200    13.3010832800
Ni      6.1383369800     2.1207818100    13.3007715300
Ni      7.3668809600     4.2490234600    13.3008058400
Ni      8.5953896200     6.3767159300    13.3009510400
Ni     12.2816608200     8.5051500100    13.3006064600
Ni      8.5958456900     2.1206091600    13.3010363900
Ni      9.8244550700     4.2487038300    13.3007275500
Ni     11.0528529700     6.3769409800    13.3006612500
Cu      2.4478273900     1.4024593500    15.3768195300
Cu      3.6763308100     3.5307008800    15.3768060800
Cu      4.9041378600     5.6597275300    15.3773446700
Cu      6.1330260800     7.7878909900    15.3784795800
Cu      4.9046987900     1.4026027500    15.3777978400
Cu      6.1325026900     3.5313494200    15.3777258600
Cu      7.3610720800     5.6598451500    15.3779275500
Cu      8.5906751600     7.7868955300    15.3785352700
Cu      7.3621786400     1.4037478100    15.3762149900
Cu      8.5904727200     3.5321453600    15.3780682300
Cu      9.8190628600     5.6596863300    15.3769316600
Cu     11.0487962800     7.7874997900    15.3777155300
Cu      9.8196454100     1.4041813300    15.3774701100
Cu     11.0479045200     3.5315147300    15.3771972900
Cu     12.2765483600     5.6595853000    15.3771297600
Cu     13.5054403700     7.7883030900    15.3772812500
Cu      1.2115110378     0.6887737777    17.6239734985
Cu      2.4453697560     2.8145132564    17.5891764502
Cu      3.6690536979     4.9437504587    17.6261036963
Cu      4.8964778319     7.0726788637    17.6016163992
Cu      3.6714453869     0.6926012213    17.5954272053
Cu      4.8976801896     2.8145372759    17.6159962303
Cu      6.1175895762     4.9410095963    17.5060119797
Cu      7.3529380535     7.0808525771    17.5419620338
Cu      6.1301362067     0.6874464419    17.6200703347
Cu      7.3544166798     2.8112534228    17.5430256319
Cu      8.5925024276     4.9438450801    17.7979345763
Cu      9.8191686138     7.0775683066    17.5364110485
Cu      8.5853180271     0.6859262487    17.5871797386
Cu      9.8176048120     2.8128152874    17.5517833623
Cu     11.0484978647     4.9421115645    17.5474259422
Cu     12.2731233596     7.0723284958    17.5934680278
O       7.4334448882     3.9084329053    22.2875927530
O       8.2112006272     5.0950440004    19.9683833246
O       8.8532063126     4.8567879920    24.6990074721
C       8.5318906436     4.8396468270    22.3319688024
C       9.2173122266     4.8614601734    20.9703332491
C       9.5072437183     4.5705230116    23.4626246218
H       8.0541042798     5.8158720923    22.5034707653
H       9.7415362432     3.9095513310    20.7651878003
H       9.9427413821     5.6804872015    20.8812623136
H      10.3983635878     5.2097838413    23.3192168165
H       9.8431682651     3.5156280511    23.4169979535
H       7.7915704740     3.0048907941    22.3587067828
H       7.4433255694     4.5254316367    20.1969480086
H       9.4732031587     4.6870464859    25.4263532820
78
Step 2 | NEB Image 2 | Cartesian Angstrom
Ni      1.2286497500     0.7093615500    11.2500000000
Ni      2.4572990100     2.8374462000    11.2500000000
Ni      3.6859482700     4.9655308600    11.2500000000
Ni      4.9145975200     7.0936155100    11.2500000000
Ni      3.6859497500     0.7093615500    11.2500000000
Ni      4.9145990100     2.8374462000    11.2500000000
Ni      6.1432482700     4.9655308600    11.2500000000
Ni      7.3718975200     7.0936155100    11.2500000000
Ni      6.1432497500     0.7093615500    11.2500000000
Ni      7.3718990100     2.8374462000    11.2500000000
Ni      8.6005482700     4.9655308600    11.2500000000
Ni      9.8291975200     7.0936155100    11.2500000000
Ni      8.6005497500     0.7093615500    11.2500000000
Ni      9.8291990100     2.8374462000    11.2500000000
Ni     11.0578482700     4.9655308600    11.2500000000
Ni     12.2864975200     7.0936155100    11.2500000000
Ni      4.9099156400     8.5053429900    13.3011714200
Ni     11.0531329400     2.1206495300    13.3008023000
Ni     12.2817169700     4.2489790300    13.3006009400
Ni     13.5101985300     6.3773433500    13.3009431200
Ni      7.3672568700     8.5047181000    13.3011773700
Ni      3.6813642400     2.1207834100    13.3007249900
Ni      4.9098915800     4.2493198200    13.3009122600
Ni      6.1382079700     6.3774560500    13.3011135700
Ni      9.8241033200     8.5046823200    13.3010832800
Ni      6.1383369800     2.1207818100    13.3007715300
Ni      7.3668809600     4.2490234600    13.3008058400
Ni      8.5953896200     6.3767159300    13.3009510400
Ni     12.2816608200     8.5051500100    13.3006064600
Ni      8.5958456900     2.1206091600    13.3010363900
Ni      9.8244550700     4.2487038300    13.3007275500
Ni     11.0528529700     6.3769409800    13.3006612500
Cu      2.4478273900     1.4024593500    15.3768195300
Cu      3.6763308100     3.5307008800    15.3768060800
Cu      4.9041378600     5.6597275300    15.3773446700
Cu      6.1330260800     7.7878909900    15.3784795800
Cu      4.9046987900     1.4026027500    15.3777978400
Cu      6.1325026900     3.5313494200    15.3777258600
Cu      7.3610720800     5.6598451500    15.3779275500
Cu      8.5906751600     7.7868955300    15.3785352700
Cu      7.3621786400     1.4037478100    15.3762149900
Cu      8.5904727200     3.5321453600    15.3780682300
Cu      9.8190628600     5.6596863300    15.3769316600
Cu     11.0487962800     7.7874997900    15.3777155300
Cu      9.8196454100     1.4041813300    15.3774701100
Cu     11.0479045200     3.5315147300    15.3771972900
Cu     12.2765483600     5.6595853000    15.3771297600
Cu     13.5054403700     7.7883030900    15.3772812500
Cu      1.2195182706     0.6827412213    17.6096976288
Cu      2.4492297743     2.8083954231    17.5831018516
Cu      3.6762077655     4.9403876264    17.6183016533
Cu      4.8987466384     7.0678072551    17.6041302988
Cu      3.6783191643     0.6870251746    17.6025276482
Cu      4.9029829675     2.8146667131    17.6252048849
Cu      6.1095957476     4.9328121660    17.4251763333
Cu      7.3549073585     7.0836246295    17.5707407793
Cu      6.1345694649     0.6873620410    17.6062563375
Cu      7.3566688535     2.8009026207    17.5580441497
Cu      8.5935228792     4.9407422587    17.5494267001
Cu      9.8309475126     7.0762154703    17.5287231174
Cu      8.5892090712     0.6902051704    17.5839192577
Cu      9.8245183828     2.8069073796    17.5909022084
Cu     11.0480160213     4.9356302843    17.5759797380
Cu     12.2772838222     7.0720152233    17.6007254971
O       7.3766350785     3.7925547592    21.6591153982
O       7.9796614430     5.3426789997    19.6803357299
O       8.0867112298     4.6664098205    24.3418890861
C       8.1596061235     4.9436386947    21.9933667917
C       8.9415966741     5.2719356880    20.7684108550
C       8.9855248138     4.7941075955    23.2393981393
H       7.4066662813     5.7304904036    22.1283469945
H       9.7137965248     4.5426349334    20.5362673101
H       9.5229351849     6.1868449033    20.8573519491
H       9.6177394414     5.6978423231    23.3112966448
H       9.6492019964     3.9105152771    23.1352590434
H       7.8566308975     2.9719430196    21.8500581708
H       7.3194927017     4.5850670937    19.7875946954
H       8.6176904119     4.5065363096    25.1369011479
78
Step 3 | NEB Image 3 | Cartesian Angstrom
Ni      1.2286497500     0.7093615500    11.2500000000
Ni      2.4572990100     2.8374462000    11.2500000000
Ni      3.6859482700     4.9655308600    11.2500000000
Ni      4.9145975200     7.0936155100    11.2500000000
Ni      3.6859497500     0.7093615500    11.2500000000
Ni      4.9145990100     2.8374462000    11.2500000000
Ni      6.1432482700     4.9655308600    11.2500000000
Ni      7.3718975200     7.0936155100    11.2500000000
Ni      6.1432497500     0.7093615500    11.2500000000
Ni      7.3718990100     2.8374462000    11.2500000000
Ni      8.6005482700     4.9655308600    11.2500000000
Ni      9.8291975200     7.0936155100    11.2500000000
Ni      8.6005497500     0.7093615500    11.2500000000
Ni      9.8291990100     2.8374462000    11.2500000000
Ni     11.0578482700     4.9655308600    11.2500000000
Ni     12.2864975200     7.0936155100    11.2500000000
Ni      4.9099156400     8.5053429900    13.3011714200
Ni     11.0531329400     2.1206495300    13.3008023000
Ni     12.2817169700     4.2489790300    13.3006009400
Ni     13.5101985300     6.3773433500    13.3009431200
Ni      7.3672568700     8.5047181000    13.3011773700
Ni      3.6813642400     2.1207834100    13.3007249900
Ni      4.9098915800     4.2493198200    13.3009122600
Ni      6.1382079700     6.3774560500    13.3011135700
Ni      9.8241033200     8.5046823200    13.3010832800
Ni      6.1383369800     2.1207818100    13.3007715300
Ni      7.3668809600     4.2490234600    13.3008058400
Ni      8.5953896200     6.3767159300    13.3009510400
Ni     12.2816608200     8.5051500100    13.3006064600
Ni      8.5958456900     2.1206091600    13.3010363900
Ni      9.8244550700     4.2487038300    13.3007275500
Ni     11.0528529700     6.3769409800    13.3006612500
Cu      2.4478273900     1.4024593500    15.3768195300
Cu      3.6763308100     3.5307008800    15.3768060800
Cu      4.9041378600     5.6597275300    15.3773446700
Cu      6.1330260800     7.7878909900    15.3784795800
Cu      4.9046987900     1.4026027500    15.3777978400
Cu      6.1325026900     3.5313494200    15.3777258600
Cu      7.3610720800     5.6598451500    15.3779275500
Cu      8.5906751600     7.7868955300    15.3785352700
Cu      7.3621786400     1.4037478100    15.3762149900
Cu      8.5904727200     3.5321453600    15.3780682300
Cu      9.8190628600     5.6596863300    15.3769316600
Cu     11.0487962800     7.7874997900    15.3777155300
Cu      9.8196454100     1.4041813300    15.3774701100
Cu     11.0479045200     3.5315147300    15.3771972900
Cu     12.2765483600     5.6595853000    15.3771297600
Cu     13.5054403700     7.7883030900    15.3772812500
Cu      1.2413113675     0.6696399060    17.5409266908
Cu      2.4789217393     2.7962441367    17.5828566261
Cu      3.6548418195     4.9690369259    17.5501071302
Cu      4.9095534178     7.0899090837    17.5219913616
Cu      3.7119533737     0.7188330568    17.5809910112
Cu      4.9251874471     2.8504732653    17.7794745735
Cu      6.1063287750     4.9840017354    17.5361252670
Cu      7.3478257002     7.0970156342    17.8417698545
Cu      6.1282124099     0.6554398104    17.5275642504
Cu      7.3346331105     2.8279129249    17.7327332225
Cu      8.6386952066     4.8633709580    17.6204419559
Cu      9.8354317776     7.0507266262    17.7833060308
Cu      8.5728823392     0.7081113974    17.5776937367
Cu      9.8364445770     2.7646414148    17.5302481831
Cu     11.0788491680     4.9010639598    17.5489927207
Cu     12.2725830253     7.0764188836    17.5874129914
O       7.7550464801     3.6474499406    21.1736993739
O       8.4437191998     5.9462539850    19.2686090204
O       7.7483160570     4.4718736726    23.9128109788
C       8.0824743526     4.9730867809    21.5977955006
C       9.0178594127     5.6179585761    20.5609929338
C       8.7491176016     4.9186636846    22.9750595701
H       7.1503506452     5.5625870041    21.6944446134
H       9.8695286370     4.9277200786    20.4128442090
H       9.3923576603     6.5516161824    21.0057167617
H       9.1260864287     5.9136275119    23.2500708796
H       9.6079251182     4.2177719187    22.9486775715
H       7.6344710932     3.0930523694    21.9689687450
H       6.2851173345     3.7695139194    18.7235841979
H       8.1695128146     4.3910345624    24.7849404308
78
Step 4 | NEB Image 4 | Cartesian Angstrom
Ni      1.2286497500     0.7093615500    11.2500000000
Ni      2.4572990100     2.8374462000    11.2500000000
Ni      3.6859482700     4.9655308600    11.2500000000
Ni      4.9145975200     7.0936155100    11.2500000000
Ni      3.6859497500     0.7093615500    11.2500000000
Ni      4.9145990100     2.8374462000    11.2500000000
Ni      6.1432482700     4.9655308600    11.2500000000
Ni      7.3718975200     7.0936155100    11.2500000000
Ni      6.1432497500     0.7093615500    11.2500000000
Ni      7.3718990100     2.8374462000    11.2500000000
Ni      8.6005482700     4.9655308600    11.2500000000
Ni      9.8291975200     7.0936155100    11.2500000000
Ni      8.6005497500     0.7093615500    11.2500000000
Ni      9.8291990100     2.8374462000    11.2500000000
Ni     11.0578482700     4.9655308600    11.2500000000
Ni     12.2864975200     7.0936155100    11.2500000000
Ni      4.9099156400     8.5053429900    13.3011714200
Ni     11.0531329400     2.1206495300    13.3008023000
Ni     12.2817169700     4.2489790300    13.3006009400
Ni     13.5101985300     6.3773433500    13.3009431200
Ni      7.3672568700     8.5047181000    13.3011773700
Ni      3.6813642400     2.1207834100    13.3007249900
Ni      4.9098915800     4.2493198200    13.3009122600
Ni      6.1382079700     6.3774560500    13.3011135700
Ni      9.8241033200     8.5046823200    13.3010832800
Ni      6.1383369800     2.1207818100    13.3007715300
Ni      7.3668809600     4.2490234600    13.3008058400
Ni      8.5953896200     6.3767159300    13.3009510400
Ni     12.2816608200     8.5051500100    13.3006064600
Ni      8.5958456900     2.1206091600    13.3010363900
Ni      9.8244550700     4.2487038300    13.3007275500
Ni     11.0528529700     6.3769409800    13.3006612500
Cu      2.4478273900     1.4024593500    15.3768195300
Cu      3.6763308100     3.5307008800    15.3768060800
Cu      4.9041378600     5.6597275300    15.3773446700
Cu      6.1330260800     7.7878909900    15.3784795800
Cu      4.9046987900     1.4026027500    15.3777978400
Cu      6.1325026900     3.5313494200    15.3777258600
Cu      7.3610720800     5.6598451500    15.3779275500
Cu      8.5906751600     7.7868955300    15.3785352700
Cu      7.3621786400     1.4037478100    15.3762149900
Cu      8.5904727200     3.5321453600    15.3780682300
Cu      9.8190628600     5.6596863300    15.3769316600
Cu     11.0487962800     7.7874997900    15.3777155300
Cu      9.8196454100     1.4041813300    15.3774701100
Cu     11.0479045200     3.5315147300    15.3771972900
Cu     12.2765483600     5.6595853000    15.3771297600
Cu     13.5054403700     7.7883030900    15.3772812500
Cu      1.2209547258     0.6890961860    17.5387035276
Cu      2.4466434897     2.7993971388    17.5618798956
Cu      3.6824648484     4.9458174282    17.6522240482
Cu      4.9013703597     7.1035220081    17.5103132120
Cu      3.6904908159     0.7179903562    17.5273438858
Cu      4.8938047588     2.7634761640    17.7554910066
Cu      6.1040564498     4.9326496960    17.5108474593
Cu      7.3062458688     7.1102304960    17.7918917338
Cu      6.1337148535     0.6565645848    17.4984341913
Cu      7.3639421930     2.7891939261    17.5578940549
Cu      8.6207435601     4.8634227537    17.5806184082
Cu      9.8653251215     7.0832953526    17.8136413279
Cu      8.5769917636     0.6883775157    17.5932674584
Cu      9.8269971212     2.7792592602    17.5711294571
Cu     11.0995068502     4.9121798995    17.5337026384
Cu     12.2833125937     7.0656513327    17.5453681248
O       8.1505887615     3.7008344664    20.7785766925
O       8.5406506152     6.1462142641    19.1037029454
O       7.2352523507     4.2410071873    23.3723153125
C       7.9329773023     5.0341002322    21.2434656506
C       8.8659425878     5.9737379020    20.4943442530
C       8.1961323766     5.1080793393    22.7439815793
H       6.8848028242     5.3296407588    21.0524197881
H       9.8912520452     5.5760093293    20.5661141655
H       8.8307920950     6.9614165698    20.9763643632
H       8.0797717198     6.1464708662    23.0948024403
H       9.2283421245     4.7688526831    22.9500490288
H       7.6697896592     3.1091999223    21.3871843035
H       5.4556670095     4.0129730620    18.7331484192
H       7.4775404128     4.1456291630    24.3070915585
78
Step 5 | NEB Image 5 | Cartesian Angstrom
Ni      1.2286497500     0.7093615500    11.2500000000
Ni      2.4572990100     2.8374462000    11.2500000000
Ni      3.6859482700     4.9655308600    11.2500000000
Ni      4.9145975200     7.0936155100    11.2500000000
Ni      3.6859497500     0.7093615500    11.2500000000
Ni      4.9145990100     2.8374462000    11.2500000000
Ni      6.1432482700     4.9655308600    11.2500000000
Ni      7.3718975200     7.0936155100    11.2500000000
Ni      6.1432497500     0.7093615500    11.2500000000
Ni      7.3718990100     2.8374462000    11.2500000000
Ni      8.6005482700     4.9655308600    11.2500000000
Ni      9.8291975200     7.0936155100    11.2500000000
Ni      8.6005497500     0.7093615500    11.2500000000
Ni      9.8291990100     2.8374462000    11.2500000000
Ni     11.0578482700     4.9655308600    11.2500000000
Ni     12.2864975200     7.0936155100    11.2500000000
Ni      4.9099156400     8.5053429900    13.3011714200
Ni     11.0531329400     2.1206495300    13.3008023000
Ni     12.2817169700     4.2489790300    13.3006009400
Ni     13.5101985300     6.3773433500    13.3009431200
Ni      7.3672568700     8.5047181000    13.3011773700
Ni      3.6813642400     2.1207834100    13.3007249900
Ni      4.9098915800     4.2493198200    13.3009122600
Ni      6.1382079700     6.3774560500    13.3011135700
Ni      9.8241033200     8.5046823200    13.3010832800
Ni      6.1383369800     2.1207818100    13.3007715300
Ni      7.3668809600     4.2490234600    13.3008058400
Ni      8.5953896200     6.3767159300    13.3009510400
Ni     12.2816608200     8.5051500100    13.3006064600
Ni      8.5958456900     2.1206091600    13.3010363900
Ni      9.8244550700     4.2487038300    13.3007275500
Ni     11.0528529700     6.3769409800    13.3006612500
Cu      2.4478273900     1.4024593500    15.3768195300
Cu      3.6763308100     3.5307008800    15.3768060800
Cu      4.9041378600     5.6597275300    15.3773446700
Cu      6.1330260800     7.7878909900    15.3784795800
Cu      4.9046987900     1.4026027500    15.3777978400
Cu      6.1325026900     3.5313494200    15.3777258600
Cu      7.3610720800     5.6598451500    15.3779275500
Cu      8.5906751600     7.7868955300    15.3785352700
Cu      7.3621786400     1.4037478100    15.3762149900
Cu      8.5904727200     3.5321453600    15.3780682300
Cu      9.8190628600     5.6596863300    15.3769316600
Cu     11.0487962800     7.7874997900    15.3777155300
Cu      9.8196454100     1.4041813300    15.3774701100
Cu     11.0479045200     3.5315147300    15.3771972900
Cu     12.2765483600     5.6595853000    15.3771297600
Cu     13.5054403700     7.7883030900    15.3772812500
Cu      1.2033705065     0.6969356421    17.5821541198
Cu      2.4251192531     2.8015203957    17.5706728674
Cu      3.6638174742     4.9455236591    17.6957784308
Cu      4.8824657762     7.1074257175    17.5112692392
Cu      3.6834649771     0.7287469022    17.5097073512
Cu      4.8991017026     2.8089224723    17.6951688437
Cu      6.0882136895     4.9248265079    17.5416299935
Cu      7.2899588057     7.1000241818    17.6293593449
Cu      6.1438202714     0.7019903536    17.5170860260
Cu      7.3756325054     2.7801121194    17.5028926447
Cu      8.5845875532     4.8639748606    17.6237276654
Cu      9.8931433099     7.1140772102    17.6819580158
Cu      8.5843944944     0.6853076632    17.5897545294
Cu      9.8227790413     2.7912306680    17.5676722235
Cu     11.0881940864     4.9293597479    17.5125457567
Cu     12.2937668744     7.0769248355    17.5070425338
O       8.3974996512     3.9499469570    20.5399650790
O       8.5930219033     6.3559078552    18.9778438619
O       6.7429450965     4.0911858336    22.7777149008
C       7.7438798449     5.1656149402    20.9167143880
C       8.5971880856     6.3126059437    20.4081630140
C       7.5481017374     5.2277559746    22.4252947569
H       6.7504994661     5.2298995603    20.4293866187
H       9.6348087410     6.1796010927    20.7500325446
H       8.2166536985     7.2720740997    20.7896886937
H       7.0415067484     6.1701348457    22.6989779991
H       8.5306805830     5.1856770359    22.9268871917
H       7.8474623596     3.2131078279    20.8642205955
H       4.9442326922     4.2563367531    18.6319759165
H       6.7463827968     3.9874371084    23.7423853704
